20
Lattice="23.0 0.0 0.0 0.0 23.0 0.0 0.0 0.0 23.3" Properties=species:S:1:pos:R:3:forces:R:3 config_id=ar20_benchmark_01 role=held-out-test subset=ar20-benchmark subset_index=1 atom_count=20 geometry_seed=203741 geometry_method="LJ-relaxed fcc20 with fixed near-equilibrium perturbation" perturbation_rms_A=0.0 lj_generation_epsilon_eV=0.013707773760502738 lj_generation_sigma_A=3.385647921528616 lj_generation_steps=134 lj_generation_energy_eV=-0.9975152891535173 min_distance_A=3.7056798809073785 max_distance_A=10.94423934980219 minimum_face_vacuum_A=6.1729266590172 method=PBE-D3(BJ) encut_eV=420.0 converged=T vasp_version=6.3.2 elapsed_seconds=192.43700551986694 scf_iterations=20 fingerprint=4dfe0f259f8228fcbdc5e0d770128e8fb4f14ad06ee0550eea6bbd988230aadd calculation_group=ar20_benchmark session_id=ar20_20260922-214530_2613351 session_step=1 energy_kind=VASP_extrapolated_zero_smearing isolated_atom_energy_eV=-0.02432658 interaction_energy_eV=-0.84079017 interaction_energy_per_atom_eV=-0.0420395085 energy=-1.32732177 free_energy=-1.32732177 pbc="T T T"
Ar      11.49984143      11.51520991      11.66520991       0.00007823       0.00052809      -0.00007787
Ar       8.87154265       8.86999173      11.73684037      -0.01928347      -0.02538254       0.00910606
Ar       8.87154265      11.58684037       9.01999173      -0.01961702       0.00852090      -0.02678823
Ar       8.84969463      11.53541067      14.33451658      -0.02413389       0.00062458       0.02406263
Ar       8.84969463      14.18451658      11.68541067      -0.02366620       0.02560333       0.00066773
Ar      11.38835189       8.84175639       8.99175639       0.00124765      -0.02459314      -0.02469135
Ar      11.51982015       8.85102277      14.34074749       0.00003205      -0.02401402       0.02452773
Ar      11.51982015      14.19074749       9.00102277       0.00178121       0.02519298      -0.02505162
Ar      11.54143212      14.16291916      14.31291916      -0.00054233       0.02468225       0.02382883
Ar      14.10124173       8.82326840      11.61986506       0.02489275      -0.02603810      -0.00083369
Ar      14.10124173      11.46986506       8.97326840       0.02487745      -0.00102613      -0.02383192
Ar      14.18269204      11.48487055      14.28975579       0.02499002      -0.00154752       0.02464313
Ar      14.18269204      14.13975579      11.63487055       0.02502320       0.02280552      -0.00126669
Ar       6.19835475      11.45653830      11.60653830      -0.02658430       0.00512174       0.00477163
Ar      11.45059099       6.17292666      11.66170629       0.00030388      -0.02626171       0.00047565
Ar      11.45059099      11.51170629       6.32292666       0.00041581       0.00085837      -0.02617369
Ar      11.53774369      11.52076996      16.97707334      -0.00050980       0.00119800       0.02624328
Ar      11.53774369      16.82707334      11.67076996      -0.00050318       0.02608761       0.00075327
Ar      16.80164525      11.44073329      11.59073329       0.02423004       0.00014034      -0.00025466
Ar       6.57512125       8.68441494       8.83441494      -0.01303211      -0.01250054      -0.01011019
20
Lattice="23.0 0.0 0.0 0.0 23.0 0.0 0.0 0.0 23.3" Properties=species:S:1:pos:R:3:forces:R:3 config_id=ar20_benchmark_02 role=held-out-test subset=ar20-benchmark subset_index=2 atom_count=20 geometry_seed=203742 geometry_method="LJ-relaxed fcc20 with fixed near-equilibrium perturbation" perturbation_rms_A=0.1 lj_generation_epsilon_eV=0.013707773760502738 lj_generation_sigma_A=3.385647921528616 lj_generation_steps=134 lj_generation_energy_eV=-0.9975152891535173 min_distance_A=3.3326509234479094 max_distance_A=10.998166185100532 minimum_face_vacuum_A=6.116146237691112 method=PBE-D3(BJ) encut_eV=420.0 converged=T vasp_version=6.3.2 elapsed_seconds=243.40987038612366 scf_iterations=25 fingerprint=f3f4c0a08652afa62ea08aaa50f2b340ea4da20825fe0277e25d88b3785bf9f5 calculation_group=ar20_benchmark session_id=ar20_20260922-214530_2613351 session_step=2 energy_kind=VASP_extrapolated_zero_smearing isolated_atom_energy_eV=-0.02432658 interaction_energy_eV=-0.7953702300000001 interaction_energy_per_atom_eV=-0.039768511500000006 energy=-1.28190183 free_energy=-1.28190183 pbc="T T T"
Ar      11.35968699      11.21795953      11.53773415       0.02853592       0.06359425      -0.01700848
Ar       8.59158717       8.94075516      11.49463029       0.06851652      -0.13069184       0.02563843
Ar       8.79653078      11.59928459       8.88730984      -0.04205913       0.00239289      -0.01663920
Ar       8.75837900      11.42638006      14.13108498      -0.01007004      -0.00113512       0.06256622
Ar       8.71553488      14.11667556      11.70258331      -0.02756641       0.02740178      -0.04244400
Ar      11.20689976       8.65854983       8.81612551       0.00889656      -0.01478601      -0.01954365
Ar      11.40384258       8.64052140      14.15776948      -0.02109661      -0.01223465       0.04806925
Ar      11.34801570      14.20302308       8.83154748       0.01203985       0.03091028       0.01445689
Ar      11.33871770      14.25580198      14.10157688       0.02931426      -0.01986016       0.05034437
Ar      14.11074984       8.74365014      11.59372080       0.01232678      -0.05631229      -0.03650038
Ar      14.04346610      11.37343231       8.83515900       0.02411757       0.00139249       0.00873977
Ar      14.00816374      11.23421353      14.13857539       0.02624316       0.04947856       0.03376359
Ar      14.08919250      14.15348460      11.48542932       0.02550151      -0.02471252       0.00309120
Ar       6.11614624      11.17205954      11.48870759      -0.10472760       0.07962554      -0.00545472
Ar      11.19861223       6.12431134      11.54358185      -0.00014250      -0.02435150      -0.00948468
Ar      11.39870713      11.51355589       6.36675302      -0.00102791      -0.00984424      -0.05814745
Ar      11.43473195      11.46576611      16.93324698      -0.00236963       0.00047465      -0.00437174
Ar      11.64330257      16.87568866      11.58223171      -0.01629111       0.03006615      -0.01454063
Ar      16.88385376      11.22287571      11.44675945       0.00264517       0.01383650       0.00183524
Ar       6.64934487       8.46810698       8.50979905      -0.01278634      -0.00524476      -0.02437003
20
Lattice="23.0 0.0 0.0 0.0 23.0 0.0 0.0 0.0 23.3" Properties=species:S:1:pos:R:3:forces:R:3 config_id=ar20_benchmark_03 role=held-out-test subset=ar20-benchmark subset_index=3 atom_count=20 geometry_seed=203743 geometry_method="LJ-relaxed fcc20 with fixed near-equilibrium perturbation" perturbation_rms_A=0.15 lj_generation_epsilon_eV=0.013707773760502738 lj_generation_sigma_A=3.385647921528616 lj_generation_steps=134 lj_generation_energy_eV=-0.9975152891535173 min_distance_A=3.2520182760506464 max_distance_A=10.958554199489614 minimum_face_vacuum_A=6.024629087525815 method=PBE-D3(BJ) encut_eV=420.0 converged=T vasp_version=6.3.2 elapsed_seconds=303.2675437927246 scf_iterations=32 fingerprint=d61b14f55141179d36129b566a378a712a042dd019bc13aa1fd24a94491a9907 calculation_group=ar20_benchmark session_id=ar20_20260922-214530_2613351 session_step=3 energy_kind=VASP_extrapolated_zero_smearing isolated_atom_energy_eV=-0.02432658 interaction_energy_eV=-0.6696173000000001 interaction_energy_per_atom_eV=-0.033480865000000005 energy=-1.1561489 free_energy=-1.1561489 pbc="T T T"
Ar      11.64572408      11.65159558      11.78940248      -0.16464615      -0.04067105       0.01267763
Ar       8.97264028       8.68569920      11.75632945      -0.06992703       0.04431992       0.06384257
Ar       8.74503674      11.40772324       9.26970150       0.11867569       0.15494637      -0.02905170
Ar       8.88174397      11.47660228      14.77903490      -0.15230149       0.00077478      -0.13206923
Ar       8.75732920      14.20489542      11.88859390       0.00075569       0.00873604      -0.00747517
Ar      11.15435121       8.68117354       8.97240119       0.02574340      -0.02830974      -0.03957664
Ar      11.53965279       8.92304496      14.36651382      -0.02252110      -0.05926445       0.03435373
Ar      11.41512692      14.05495912       8.66093587      -0.00616422       0.05524467       0.04498833
Ar      11.52596303      14.13322509      14.40928808      -0.05915069       0.06798384       0.06520140
Ar      13.81959467       8.84734359      11.65261944       0.06023814      -0.08226453       0.01883790
Ar      13.83828329      11.29091652       9.19633727       0.08571831       0.03869286      -0.09497945
Ar      14.04512048      11.52425506      14.54335578       0.07465275      -0.02404872       0.03132192
Ar      14.00974501      14.08377403      12.03162848       0.12194693       0.07975226      -0.08108546
Ar       6.14314462      11.45358439      11.70130832      -0.02708459       0.00598227       0.04422099
Ar      11.17699264       6.02462909      11.70321098       0.04369751      -0.05696931       0.00337624
Ar      11.36033799      11.35768487       6.36014443      -0.00730902      -0.02572703      -0.04097781
Ar      11.31206788      11.47498037      16.93985557       0.10900349       0.00294237       0.16386177
Ar      11.58009932      16.97537091      11.61010550      -0.00624074      -0.01000730      -0.00385520
Ar      16.85685538      11.21315247      11.99759411      -0.00814197       0.00511987      -0.00890497
Ar       6.62953461       8.94748650       8.99204351      -0.11694490      -0.13723314      -0.04470685
20
Lattice="23.0 0.0 0.0 0.0 23.0 0.0 0.0 0.0 23.3" Properties=species:S:1:pos:R:3:forces:R:3 config_id=ar20_benchmark_04 role=held-out-test subset=ar20-benchmark subset_index=4 atom_count=20 geometry_seed=203744 geometry_method="LJ-relaxed fcc20 with fixed near-equilibrium perturbation" perturbation_rms_A=0.2 lj_generation_epsilon_eV=0.013707773760502738 lj_generation_sigma_A=3.385647921528616 lj_generation_steps=134 lj_generation_energy_eV=-0.9975152891535173 min_distance_A=3.2207512962328346 max_distance_A=10.9160495104513 minimum_face_vacuum_A=6.16310152204948 method=PBE-D3(BJ) encut_eV=420.0 converged=T vasp_version=6.3.2 elapsed_seconds=323.84034180641174 scf_iterations=34 fingerprint=6cf307a32e5da7772cc99b86dced7c8749d6dd3efb7a190727708db9508e743a calculation_group=ar20_benchmark session_id=ar20_20260922-214530_2613351 session_step=4 energy_kind=VASP_extrapolated_zero_smearing isolated_atom_energy_eV=-0.02432658 interaction_energy_eV=-0.5510022300000001 interaction_energy_per_atom_eV=-0.02755011150000001 energy=-1.03753383 free_energy=-1.03753383 pbc="T T T"
Ar      11.30203657      11.23999684      11.35364851      -0.00070707      -0.19425296       0.18245827
Ar       8.78135463       8.31972586      11.54687055      -0.03141460       0.04879359       0.04063572
Ar       8.81445769      11.25679366       8.73970549      -0.01403296       0.06319471      -0.01681925
Ar       8.77902539      11.18709680      14.66173822      -0.04018833       0.01391847      -0.04887725
Ar       9.03301389      13.88154927      11.59597538      -0.16887682       0.05415646      -0.04177230
Ar      11.53535440       8.80241812       8.73755122      -0.07516655      -0.17301444       0.01100048
Ar      11.44381701       8.66149906      14.13374018      -0.03155083       0.01829988       0.09115129
Ar      11.56591422      13.60085507       9.17880233      -0.12524616       0.27909926      -0.21830128
Ar      11.52688791      13.93611808      13.77944446       0.01225747       0.01165189       0.20316200
Ar      14.06037403       8.65317436      11.85279679       0.04319573      -0.04368981      -0.08454239
Ar      13.76370419      11.24254918       8.67059079       0.27543905      -0.02802105       0.00318059
Ar      14.29679738      11.17822197      14.27180947      -0.01007682       0.04043436       0.05515897
Ar      13.95459760      13.73207186      11.50183801       0.17976365       0.04306636       0.00479732
Ar       6.41109743      11.34044642      11.68605540      -0.02114767      -0.00697541       0.00965991
Ar      11.41097348       6.16310152      11.67712552       0.04897171      -0.11036385      -0.03960229
Ar      11.37684463      11.30028450       6.19410264      -0.03417779       0.02411656      -0.10952510
Ar      11.27529127      11.01295232      17.10589736       0.04662999       0.00749339       0.03000373
Ar      11.36297842      16.83689848      11.35826568       0.00871504       0.00782259      -0.00631544
Ar      16.58890257      11.15868068      11.28715728       0.03901215       0.00972047      -0.01305279
Ar       6.53419068       8.74713305       8.95125694      -0.10139920      -0.06545047      -0.05240020
20
Lattice="23.0 0.0 0.0 0.0 23.0 0.0 0.0 0.0 23.3" Properties=species:S:1:pos:R:3:forces:R:3 config_id=ar20_benchmark_05 role=held-out-test subset=ar20-benchmark subset_index=5 atom_count=20 geometry_seed=203745 geometry_method="LJ-relaxed fcc20 with fixed near-equilibrium perturbation" perturbation_rms_A=0.25 lj_generation_epsilon_eV=0.013707773760502738 lj_generation_sigma_A=3.385647921528616 lj_generation_steps=134 lj_generation_energy_eV=-0.9975152891535173 min_distance_A=3.2934568666393935 max_distance_A=11.421682217407184 minimum_face_vacuum_A=6.033419688562997 method=PBE-D3(BJ) encut_eV=420.0 converged=T vasp_version=6.3.2 elapsed_seconds=296.01324677467346 scf_iterations=31 fingerprint=cca57f572334bedcc47d56430d370cc5ae3883413d0bc07db0b642285aee76cf calculation_group=ar20_benchmark session_id=ar20_20260922-214530_2613351 session_step=5 energy_kind=VASP_extrapolated_zero_smearing isolated_atom_energy_eV=-0.02432658 interaction_energy_eV=-0.61639127 interaction_energy_per_atom_eV=-0.0308195635 energy=-1.10292287 free_energy=-1.10292287 pbc="T T T"
Ar      11.97485472      11.64460739      11.95246762      -0.11256955       0.01723113       0.09540686
Ar       9.14913414       9.20529452      11.94176217      -0.00784767      -0.07052304       0.01937656
Ar       9.15768316      11.73070074       9.55081694       0.00864853      -0.00910216      -0.11220238
Ar       9.07994551      11.84193833      14.43556223       0.00374210      -0.07179572       0.09826634
Ar       8.63652689      14.13035707      12.02503040      -0.00465709       0.12659752      -0.03641618
Ar      12.07241504       8.84167644       8.72129108      -0.04520504      -0.00412915      -0.01224576
Ar      12.23501518       8.84115667      14.63581918      -0.01268037      -0.01334304      -0.02093834
Ar      11.51234088      14.73488161       9.39016471      -0.02625482      -0.09312271      -0.12649723
Ar      11.71391744      14.53202900      14.52623006       0.01474514      -0.07323258       0.07680251
Ar      14.52776141       9.03205568      11.42726767      -0.00830425      -0.18345493       0.09291713
Ar      14.19703560      11.69934148       9.52228769       0.05135635       0.05511146      -0.27849569
Ar      14.76617257      11.65763494      14.29419039      -0.08563308       0.02330385       0.12953787
Ar      14.52670609      14.44874199      11.42616443       0.04517119       0.07994887       0.08031249
Ar       6.04626536      11.43053324      11.65525434      -0.01397063      -0.00987210       0.00342954
Ar      11.38946849       6.24120973      11.62284799       0.01520191       0.00594941      -0.00002579
Ar      11.10839874      12.03502173       6.03341969       0.00388941      -0.00248551       0.02712233
Ar      11.65390900      11.39970295      17.26658031       0.00596089       0.01592599      -0.00453090
Ar      11.73703203      16.75879027      11.99594321      -0.00999401       0.16097992       0.03383985
Ar      16.95373464      11.49945272      11.83308684       0.16301784       0.03171583      -0.07938920
Ar       6.33284217       8.50765654       8.88340495       0.01538315       0.01429694       0.01373000
