5
Lattice="18.9 0.0 0.0 0.0 20.3 0.0 0.0 0.0 21.9" Properties=species:S:1:pos:R:3:forces:R:3 config_id=ar5_shape3_r4.4 family=3 min_distance_A=4.4 dataset_index=58 role=training geometry_seed=none-deterministic minimum_face_vacuum_A=6.0645481091072195 method=PBE-D3(BJ) encut_eV=420.0 converged=T vasp_version=6.3.2 elapsed_seconds=65.18303370475769 scf_iterations=22 fingerprint=284d32794d5d138bb41840651c1cf6366e73f9bed8e83ece79fff9d83c313376 calculation_group=production_ar5 session_id=ar5_20260922-173715_1589050 session_step=12 energy_kind=VASP_extrapolated_zero_smearing isolated_atom_energy_eV=-0.02437161 interaction_energy_eV=-0.05281427999999999 interaction_energy_per_atom_eV=-0.010562855999999999 energy=-0.17467233 free_energy=-0.17467233 pbc="T T T"
Ar      12.83545189      10.15000000      10.95000000      -0.01663353       0.00000000       0.00000174
Ar      10.24919678      13.70967478      10.95000000      -0.00385241      -0.01374403       0.00000081
Ar       6.06454811      12.35000000      10.95000000       0.01216918      -0.00861286       0.00000139
Ar       6.06454811       7.95000000      10.95000000       0.01216918       0.00861286      -0.00000220
Ar      10.24919678       6.59032522      10.95000000      -0.00385241       0.01374403      -0.00000174
4
Lattice="18.3 0.0 0.0 0.0 18.3 0.0 0.0 0.0 16.6" Properties=species:S:1:pos:R:3:forces:R:3 config_id=ar4_shape5_r4.4 family=5 min_distance_A=4.4 dataset_index=87 role=training geometry_seed=none-deterministic minimum_face_vacuum_A=6.0120000000000005 method=PBE-D3(BJ) encut_eV=420.0 converged=T vasp_version=6.3.2 elapsed_seconds=35.138766288757324 scf_iterations=20 fingerprint=4c77202fe14805a71167aec976cb09c0dc3f673ae03fd9abb0bad68681f604b5 calculation_group=production_ar4 session_id=ar4_20260922-172423_1589050 session_step=20 energy_kind=VASP_extrapolated_zero_smearing isolated_atom_energy_eV=-0.02436924 interaction_energy_eV=-0.02959845 interaction_energy_per_atom_eV=-0.0073996125 energy=-0.12707541 free_energy=-0.12707541 pbc="T T T"
Ar      10.91000000      10.47000000      10.58800000      -0.01051583      -0.00893470      -0.00446410
Ar      10.91000000       7.83000000       6.01200000      -0.01051583       0.00893470       0.00446655
Ar       7.39000000      10.47000000       6.01200000       0.01051583      -0.00893470       0.00446631
Ar       7.39000000       7.83000000      10.58800000       0.01051583       0.00893470      -0.00446877
7
Lattice="20.9 0.0 0.0 0.0 20.1 0.0 0.0 0.0 23.1" Properties=species:S:1:pos:R:3:forces:R:3 config_id=ar7_shape1_r3.2 family=1 min_distance_A=3.2 dataset_index=10 role=training geometry_seed=none-deterministic minimum_face_vacuum_A=7.4611456180001685 method=PBE-D3(BJ) encut_eV=420.0 converged=T vasp_version=6.3.2 elapsed_seconds=99.4611029624939 scf_iterations=20 fingerprint=018ed5245ef84cbdf4ea76270af3d22e4ebda1b3d864f95c831534b44862a761 calculation_group=production_ar7 session_id=ar7_20260922-183543_1694346 session_step=2 energy_kind=VASP_extrapolated_zero_smearing isolated_atom_energy_eV=-0.02435806 interaction_energy_eV=0.00933953999999998 interaction_energy_per_atom_eV=0.001334219999999997 energy=-0.16116688 free_energy=-0.16116688 pbc="T T T"
Ar      12.91214683      10.05000000      11.55000000       0.25699614       0.00000003       0.00000026
Ar      11.03123402      12.63885438      11.55000000       0.08077296       0.24470512      -0.00000005
Ar       7.98785317      11.65000000      11.55000000      -0.20881036       0.15120036       0.00000248
Ar       7.98785317       8.45000000      11.55000000      -0.20880842      -0.15119888      -0.00000152
Ar      11.03123402       7.46114562      11.55000000       0.08077353      -0.24470753      -0.00000168
Ar      10.19006424      10.05000000      14.27208259      -0.00046193       0.00000045       0.01282474
Ar      10.19006424      10.05000000       8.82791741      -0.00046193       0.00000045      -0.01282423
3
Lattice="20.1 0.0 0.0 0.0 17.5 0.0 0.0 0.0 12.0" Properties=species:S:1:pos:R:3:forces:R:3 config_id=ar3_shape4_r3.2 family=4 min_distance_A=3.2 dataset_index=66 role=training geometry_seed=none-deterministic minimum_face_vacuum_A=6.0 method=PBE-D3(BJ) encut_eV=420.0 converged=T vasp_version=6.3.2 elapsed_seconds=25.128180503845215 scf_iterations=22 fingerprint=290f587d4bc9aa0d9eb5dc25da348facbf25d09ad90264101abab70a6227235c calculation_group=production_ar3 session_id=ar3_20260922-171909_1589050 session_step=6 energy_kind=VASP_extrapolated_zero_smearing isolated_atom_energy_eV=-0.02439065 interaction_energy_eV=0.006958800000000001 interaction_energy_per_atom_eV=0.0023196000000000002 energy=-0.06621315 free_energy=-0.06621315 pbc="T T T"
Ar       8.45000000       6.99000000       6.00000000      -0.21001846       0.00658226      -0.00000295
Ar      11.65000000       6.99000000       6.00000000       0.22118213      -0.03478687       0.00000107
Ar      11.01000000      10.51000000       6.00000000      -0.01116367       0.02820461       0.00000187
7
Lattice="20.9 0.0 0.0 0.0 20.1 0.0 0.0 0.0 23.1" Properties=species:S:1:pos:R:3:forces:R:3 config_id=ar7_shape3_r3.2 family=3 min_distance_A=3.2 dataset_index=50 role=training geometry_seed=none-deterministic minimum_face_vacuum_A=7.249999999999998 method=PBE-D3(BJ) encut_eV=420.0 converged=T vasp_version=6.3.2 elapsed_seconds=102.73734593391418 scf_iterations=21 fingerprint=5c2a5ed8608768bb2a61e11dd44da6199793fec005c9d14c432868f7e8102fc8 calculation_group=production_ar7 session_id=ar7_20260922-183543_1694346 session_step=10 energy_kind=VASP_extrapolated_zero_smearing isolated_atom_energy_eV=-0.02435806 interaction_energy_eV=0.35422416 interaction_energy_per_atom_eV=0.05060345142857143 energy=0.18371774 free_energy=0.18371774 pbc="T T T"
Ar      13.65000000      10.05000000      11.55000000       0.42388968       0.00000213      -0.00000081
Ar      12.05000000      12.82128129      11.55000000       0.21085912       0.36516106      -0.00000030
Ar       8.85000000      12.82128129      11.55000000      -0.21085937       0.36516471      -0.00000227
Ar       7.25000000      10.05000000      11.55000000      -0.42388964      -0.00000213       0.00000081
Ar       8.85000000       7.27871871      11.55000000      -0.21085911      -0.36516107       0.00000031
Ar      12.05000000       7.27871871      11.55000000       0.21085938      -0.36516467       0.00000226
Ar      10.45000000      10.05000000      11.55000000      -0.00000006      -0.00000002      -0.00000001
5
Lattice="19.7 0.0 0.0 0.0 20.2 0.0 0.0 0.0 20.3" Properties=species:S:1:pos:R:3:forces:R:3 config_id=ar5_distorted_01 role=distorted subset=random-distorted subset_index=21 atom_count=5 geometry_seed=379374 random_radius_A=5.0 minimum_pair_distance_A=2.5 min_distance_A=3.703252523114974 max_distance_A=8.375605542468474 minimum_face_vacuum_A=6.070773153303261 method=PBE-D3(BJ) encut_eV=420.0 converged=T vasp_version=6.3.2 elapsed_seconds=35.95553207397461 scf_iterations=13 fingerprint=4c2c1e1d191e468c4bb0cc24a390d7e3f3b30b73cf24f7775de44ab41f1ac2d5 calculation_group=distorted_ar5 session_id=ar5_20260922-194301_1867103 session_step=1 energy_kind=VASP_extrapolated_zero_smearing isolated_atom_energy_eV=-0.02433363 interaction_energy_eV=-0.02006207 interaction_energy_per_atom_eV=-0.004012414000000001 energy=-0.14173022 free_energy=-0.14173022 pbc="T T T"
Ar      12.27141326      11.48044258      13.45375635      -0.00065461       0.00106460      -0.00146699
Ar      13.15184318       9.55280667       6.84624365      -0.00200050      -0.00039570       0.00183106
Ar       9.27957443       6.07077315       9.48229386       0.01033623      -0.00593842       0.00192084
Ar       6.54815682       8.43086975       8.65562517      -0.00828476       0.00804254      -0.00226010
Ar       7.25345650      14.12922685      10.53440526       0.00060364      -0.00277302      -0.00002481
5
Lattice="18.9 0.0 0.0 0.0 20.3 0.0 0.0 0.0 21.9" Properties=species:S:1:pos:R:3:forces:R:3 config_id=ar5_shape2_r4.4 family=2 min_distance_A=4.4 dataset_index=38 role=training geometry_seed=none-deterministic minimum_face_vacuum_A=6.338730162779189 method=PBE-D3(BJ) encut_eV=420.0 converged=T vasp_version=6.3.2 elapsed_seconds=99.31472182273865 scf_iterations=33 fingerprint=04c5bdb78353bfdbe40e35099a1ef4e18293284018fc316d8b189bc565524afb calculation_group=production_ar5 session_id=ar5_20260922-173715_1589050 session_step=5 energy_kind=VASP_extrapolated_zero_smearing isolated_atom_energy_eV=-0.02437161 interaction_energy_eV=-0.07979011999999999 interaction_energy_per_atom_eV=-0.015958023999999998 energy=-0.20164817 free_energy=-0.20164817 pbc="T T T"
Ar      12.56126984      10.15000000       9.39436508      -0.02421529       0.00000092       0.00730469
Ar       9.45000000      13.26126984       9.39436508      -0.00000007      -0.02450577       0.00776259
Ar       6.33873016      10.15000000       9.39436508       0.02421417       0.00000103       0.00731094
Ar       9.45000000       7.03873016       9.39436508      -0.00000111       0.02450413       0.00776132
Ar       9.45000000      10.15000000      12.50563492       0.00000230      -0.00000030      -0.03013954
6
Lattice="20.9 0.0 0.0 0.0 19.7 0.0 0.0 0.0 21.0" Properties=species:S:1:pos:R:3:forces:R:3 config_id=ar6_shape1_r3.8 family=1 min_distance_A=3.8 dataset_index=4 role=training geometry_seed=none-deterministic minimum_face_vacuum_A=7.162994231491119 method=PBE-D3(BJ) encut_eV=420.0 converged=T vasp_version=6.3.2 elapsed_seconds=61.642184019088745 scf_iterations=19 fingerprint=963fd2e7808ae80dab4a7906a1f06a7c766f1d433e5b4aa35c0cda07225c1415 calculation_group=production_ar6 session_id=ar6_20260922-180308_1589050 session_step=3 energy_kind=VASP_extrapolated_zero_smearing isolated_atom_energy_eV=-0.02438137 interaction_energy_eV=-0.16563025 interaction_energy_per_atom_eV=-0.027605041666666667 energy=-0.31191847 free_energy=-0.31191847 pbc="T T T"
Ar      13.13700577       9.85000000      10.50000000       0.01720718      -0.00000151      -0.00000830
Ar      10.45000000      12.53700577      10.50000000      -0.00000106       0.01565851      -0.00000062
Ar      10.45000000       9.85000000      13.18700577      -0.00000799      -0.00000137       0.01900265
Ar       7.76299423       9.85000000      10.50000000      -0.01720709      -0.00000003       0.00000845
Ar      10.45000000       7.16299423      10.50000000       0.00000092      -0.01565907       0.00000040
Ar      10.45000000       9.85000000       7.81299423       0.00000805       0.00000348      -0.01900259
5
Lattice="18.9 0.0 0.0 0.0 20.3 0.0 0.0 0.0 21.9" Properties=species:S:1:pos:R:3:forces:R:3 config_id=ar5_shape5_r4.4 family=5 min_distance_A=4.4 dataset_index=98 role=training geometry_seed=none-deterministic minimum_face_vacuum_A=6.0141772384506655 method=PBE-D3(BJ) encut_eV=420.0 converged=T vasp_version=6.3.2 elapsed_seconds=69.63296556472778 scf_iterations=23 fingerprint=02adce690900e49881487189e21d2ade1fbfeea168a999d8fcebbd1ffb3acdb2 calculation_group=production_ar5 session_id=ar5_20260922-173715_1589050 session_step=20 energy_kind=VASP_extrapolated_zero_smearing isolated_atom_energy_eV=-0.02437161 interaction_energy_eV=-0.04118175000000002 interaction_energy_per_atom_eV=-0.008236350000000003 energy=-0.1630398 free_energy=-0.1630398 pbc="T T T"
Ar      12.88582276      10.15000000       9.57567090      -0.01290303       0.00000000       0.00719556
Ar       9.45000000      14.27298731       9.57567090      -0.00000000      -0.01087782       0.00321434
Ar       6.01417724      10.15000000       9.57567090       0.01290303       0.00000000       0.00720065
Ar       9.45000000       6.02701269       9.57567090       0.00000000       0.01087782       0.00321756
Ar       9.45000000      10.15000000      12.32432910       0.00000000      -0.00000000      -0.02082811
7
Lattice="20.9 0.0 0.0 0.0 20.1 0.0 0.0 0.0 23.1" Properties=species:S:1:pos:R:3:forces:R:3 config_id=ar7_shape4_r3.2 family=4 min_distance_A=3.2 dataset_index=70 role=training geometry_seed=none-deterministic minimum_face_vacuum_A=7.4611456180001685 method=PBE-D3(BJ) encut_eV=420.0 converged=T vasp_version=6.3.2 elapsed_seconds=121.93808245658875 scf_iterations=25 fingerprint=beb292b2e6d0965c86a4ac083e9205ef91f207e38905f3a1a6514c42d19474a6 calculation_group=production_ar7 session_id=ar7_20260922-183543_1694346 session_step=15 energy_kind=VASP_extrapolated_zero_smearing isolated_atom_energy_eV=-0.02435806 interaction_energy_eV=-0.05897043000000002 interaction_energy_per_atom_eV=-0.008424347142857145 energy=-0.22947685 free_energy=-0.22947685 pbc="T T T"
Ar      13.34664333      10.05000000      11.55000000       0.10833583       0.00000000      -0.00000157
Ar      11.13380473      12.63885438      11.55000000      -0.05055787       0.05808148       0.00000139
Ar       7.55335667      11.65000000      11.55000000      -0.00458022       0.20677856       0.00000280
Ar       7.55335667       8.45000000      11.55000000      -0.00458022      -0.20677856      -0.00000120
Ar      11.13380473       7.46114562      11.55000000      -0.05055787      -0.05808148      -0.00000022
Ar      10.14419323      10.05000000      15.55306263       0.00096945      -0.00000000      -0.02216594
Ar      10.14419323      10.05000000       7.54693737       0.00097089      -0.00000000       0.02216475
5
Lattice="18.9 0.0 0.0 0.0 20.3 0.0 0.0 0.0 21.9" Properties=species:S:1:pos:R:3:forces:R:3 config_id=ar5_shape4_r4.4 family=4 min_distance_A=4.4 dataset_index=78 role=training geometry_seed=none-deterministic minimum_face_vacuum_A=6.010195685387256 method=PBE-D3(BJ) encut_eV=420.0 converged=T vasp_version=6.3.2 elapsed_seconds=179.25435590744019 scf_iterations=58 fingerprint=f0cb74cbae5c9668aa457c39d270941521af69ad33ba5c4d2a6e230bab8a17ab calculation_group=production_ar5 session_id=ar5_20260922-173715_1589050 session_step=13 energy_kind=VASP_extrapolated_zero_smearing isolated_atom_energy_eV=-0.02437161 interaction_energy_eV=-0.02683352 interaction_energy_per_atom_eV=-0.005366704 energy=-0.14869157 free_energy=-0.14869157 pbc="T T T"
Ar      11.83156986      10.15000000      10.95000000      -0.00803171      -0.00002002      -0.00008003
Ar       7.06843014      12.35000000      10.95000000       0.00476751      -0.01532506      -0.00010278
Ar       7.06843014       7.95000000      10.95000000       0.00478274       0.01535657      -0.00006394
Ar       8.65614338      10.15000000      15.88980431      -0.00072792       0.00000966      -0.00601960
Ar       8.65614338      10.15000000       6.01019569      -0.00079063      -0.00002115       0.00626635
3
Lattice="20.1 0.0 0.0 0.0 17.5 0.0 0.0 0.0 12.0" Properties=species:S:1:pos:R:3:forces:R:3 config_id=ar3_shape4_r3.8 family=4 min_distance_A=3.8 dataset_index=71 role=training geometry_seed=none-deterministic minimum_face_vacuum_A=6.0 method=PBE-D3(BJ) encut_eV=420.0 converged=T vasp_version=6.3.2 elapsed_seconds=26.063514232635498 scf_iterations=23 fingerprint=6218b0439acf315f99d722393b6dd788d29389bf698b3fd010ec60a9c4bc51ac calculation_group=production_ar3 session_id=ar3_20260922-171909_1589050 session_step=5 energy_kind=VASP_extrapolated_zero_smearing isolated_atom_energy_eV=-0.02439065 interaction_energy_eV=-0.03095932 interaction_energy_per_atom_eV=-0.010319773333333332 energy=-0.10413127 free_energy=-0.10413127 pbc="T T T"
Ar       8.15000000       6.66000000       6.00000000      -0.00003254       0.00371425       0.00000058
Ar      11.95000000       6.66000000       6.00000000       0.00073253       0.01215085       0.00000141
Ar      11.19000000      10.84000000       6.00000000      -0.00069999      -0.01586510      -0.00000199
6
Lattice="20.9 0.0 0.0 0.0 19.7 0.0 0.0 0.0 21.0" Properties=species:S:1:pos:R:3:forces:R:3 config_id=ar6_shape4_r3.8 family=4 min_distance_A=3.8 dataset_index=64 role=training geometry_seed=none-deterministic minimum_face_vacuum_A=6.64250808135143 method=PBE-D3(BJ) encut_eV=420.0 converged=T vasp_version=6.3.2 elapsed_seconds=79.89079594612122 scf_iterations=25 fingerprint=24ad08212eaf33e19726ebf816859e5a9e8e623a91d504dfa0f08b34f1234173 calculation_group=production_ar6 session_id=ar6_20260922-180308_1589050 session_step=14 energy_kind=VASP_extrapolated_zero_smearing isolated_atom_energy_eV=-0.02438137 interaction_energy_eV=-0.11849767000000003 interaction_energy_per_atom_eV=-0.01974961166666667 energy=-0.26478589 free_energy=-0.26478589 pbc="T T T"
Ar      13.41730148       9.85000000      10.50000000      -0.00103364      -0.00000000      -0.00000246
Ar      10.45000000      12.22384118      10.50000000       0.00000001      -0.00871501      -0.00000180
Ar      10.45000000       9.85000000      14.35749192       0.00000000       0.00000000      -0.02644499
Ar       7.48269852       9.85000000      10.50000000       0.00103361      -0.00000000       0.00000245
Ar      10.45000000       7.47615882      10.50000000       0.00000001       0.00871501       0.00000180
Ar      10.45000000       9.85000000       6.64250808       0.00000000       0.00000000       0.02644501
5
Lattice="19.7 0.0 0.0 0.0 20.2 0.0 0.0 0.0 20.3" Properties=species:S:1:pos:R:3:forces:R:3 config_id=ar5_distorted_02 role=distorted subset=random-distorted subset_index=22 atom_count=5 geometry_seed=379375 random_radius_A=5.0 minimum_pair_distance_A=2.5 min_distance_A=3.5173121301574355 max_distance_A=8.72331022370733 minimum_face_vacuum_A=6.001924427293281 method=PBE-D3(BJ) encut_eV=420.0 converged=T vasp_version=6.3.2 elapsed_seconds=93.0441722869873 scf_iterations=33 fingerprint=892b924cc500db0aef3cc586ca577801ea149af7667b3506ba580747492f7eea calculation_group=distorted_ar5 session_id=ar5_20260922-194301_1867103 session_step=2 energy_kind=VASP_extrapolated_zero_smearing isolated_atom_energy_eV=-0.02433363 interaction_energy_eV=-0.05170707000000001 interaction_energy_per_atom_eV=-0.010341414000000002 energy=-0.17337522 free_energy=-0.17337522 pbc="T T T"
Ar       6.57777847      12.43948242      10.42691702      -0.00065963      -0.01274003      -0.00181764
Ar      12.97566550       9.68165996      12.32560099       0.03373208       0.02458314       0.01734450
Ar       6.00192443       8.29566825      10.17417680       0.01213836       0.01061258       0.00232477
Ar      10.59918719       7.76051758      10.58403636      -0.03643458      -0.02465347      -0.03103153
Ar      13.69807557       8.03690751       7.97439901      -0.00877624       0.00219779       0.01317991
6
Lattice="20.9 0.0 0.0 0.0 19.7 0.0 0.0 0.0 21.0" Properties=species:S:1:pos:R:3:forces:R:3 config_id=ar6_shape2_r3.2 family=2 min_distance_A=3.2 dataset_index=39 role=training geometry_seed=none-deterministic minimum_face_vacuum_A=8.117949192431121 method=PBE-D3(BJ) encut_eV=420.0 converged=T vasp_version=6.3.2 elapsed_seconds=79.893061876297 scf_iterations=25 fingerprint=4661bb0140fd5a1cc5b98271de91b2a76f6eea794d995c2c78427e28bc7a07b6 calculation_group=production_ar6 session_id=ar6_20260922-180308_1589050 session_step=7 energy_kind=VASP_extrapolated_zero_smearing isolated_atom_energy_eV=-0.02438137 interaction_energy_eV=0.03480849999999999 interaction_energy_per_atom_eV=0.005801416666666666 energy=-0.11147972 free_energy=-0.11147972 pbc="T T T"
Ar      11.95000000       9.85000000       8.90000000       0.11266925      -0.00000001      -0.21006431
Ar       8.95000000      11.58205081       8.90000000      -0.05633463       0.09807739      -0.21099646
Ar       8.95000000       8.11794919       8.90000000      -0.05633462      -0.09807738      -0.21099391
Ar      11.95000000       9.85000000      12.10000000       0.11266925      -0.00000001       0.21006612
Ar       8.95000000      11.58205081      12.10000000      -0.05633463       0.09807739       0.21099301
Ar       8.95000000       8.11794919      12.10000000      -0.05633463      -0.09807739       0.21099557
7
Lattice="20.9 0.0 0.0 0.0 20.1 0.0 0.0 0.0 23.1" Properties=species:S:1:pos:R:3:forces:R:3 config_id=ar7_shape4_r4.4 family=4 min_distance_A=4.4 dataset_index=80 role=training geometry_seed=none-deterministic minimum_face_vacuum_A=6.045788887133857 method=PBE-D3(BJ) encut_eV=420.0 converged=T vasp_version=6.3.2 elapsed_seconds=168.46704506874084 scf_iterations=34 fingerprint=3960d966ad2f5e8a6bf74fab462a2b319d18d54bf6c98b8eadebe505e770fc04 calculation_group=production_ar7 session_id=ar7_20260922-183543_1694346 session_step=13 energy_kind=VASP_extrapolated_zero_smearing isolated_atom_energy_eV=-0.02435806 interaction_energy_eV=-0.03808197000000002 interaction_energy_per_atom_eV=-0.005440281428571432 energy=-0.20858839 free_energy=-0.20858839 pbc="T T T"
Ar      14.43288458      10.05000000      11.55000000      -0.01406382      -0.00000001       0.00000103
Ar      11.39023151      13.60967478      11.55000000       0.00104341      -0.01023342      -0.00000168
Ar       6.46711542      12.25000000      11.55000000       0.00661199      -0.01172484      -0.00000254
Ar       6.46711542       7.85000000      11.55000000       0.00661234       0.01172527       0.00000078
Ar      11.39023151       6.49032522      11.55000000       0.00104309       0.01023388       0.00000047
Ar      10.02951569      10.05000000      17.05421111      -0.00062378      -0.00000010      -0.00111413
Ar      10.02951569      10.05000000       6.04578889      -0.00062323      -0.00000077       0.00111607
6
Lattice="20.9 0.0 0.0 0.0 19.7 0.0 0.0 0.0 21.0" Properties=species:S:1:pos:R:3:forces:R:3 config_id=ar6_shape5_r4.4 family=5 min_distance_A=4.4 dataset_index=89 role=training geometry_seed=none-deterministic minimum_face_vacuum_A=6.03948822334847 method=PBE-D3(BJ) encut_eV=420.0 converged=T vasp_version=6.3.2 elapsed_seconds=43.89911365509033 scf_iterations=12 fingerprint=7cb67cbadf3b197430865dbb402e8b48adcd572abccacaf599d534ae2fb2047f calculation_group=production_ar6 session_id=ar6_20260922-183416_1694346 session_step=1 energy_kind=VASP_extrapolated_zero_smearing isolated_atom_energy_eV=-0.02438137 interaction_energy_eV=-0.034009979999999995 interaction_energy_per_atom_eV=-0.005668329999999999 energy=-0.1802982 free_energy=-0.1802982 pbc="T T T"
Ar      13.20000000       9.85000000       8.30000000       0.00031638       0.00001659       0.01312073
Ar       7.70000000      13.66051178       8.30000000      -0.00013887      -0.00053930       0.01289803
Ar       7.70000000       6.03948822       8.30000000      -0.00010295       0.00035059       0.01293337
Ar      13.20000000       9.85000000      12.70000000       0.00021413       0.00029867      -0.01325714
Ar       7.70000000      13.66051178      12.70000000      -0.00009004      -0.00046228      -0.01291841
Ar       7.70000000       6.03948822      12.70000000      -0.00019864       0.00033573      -0.01277658
5
Lattice="19.7 0.0 0.0 0.0 20.2 0.0 0.0 0.0 20.3" Properties=species:S:1:pos:R:3:forces:R:3 config_id=ar5_distorted_08 role=distorted subset=random-distorted subset_index=28 atom_count=5 geometry_seed=379381 random_radius_A=5.0 minimum_pair_distance_A=2.5 min_distance_A=3.2590648184614506 max_distance_A=8.870276998157578 minimum_face_vacuum_A=6.817421599267766 method=PBE-D3(BJ) encut_eV=420.0 converged=T vasp_version=6.3.2 elapsed_seconds=94.55027556419373 scf_iterations=33 fingerprint=c9e2ac4a490c6131671047da6c05f2f34136d41ccfdb71c4368b86048a6ba6b9 calculation_group=distorted_ar5 session_id=ar5_20260922-194301_1867103 session_step=8 energy_kind=VASP_extrapolated_zero_smearing isolated_atom_energy_eV=-0.02433363 interaction_energy_eV=-0.01223312 interaction_energy_per_atom_eV=-0.002446624 energy=-0.13390127 free_energy=-0.13390127 pbc="T T T"
Ar       7.18206012      12.06929211      12.22489459       0.00705767      -0.00361807      -0.01426305
Ar       6.90500099       6.81742160      10.61248695       0.00190155       0.00607724      -0.00036095
Ar      12.79499901      13.38257840      11.55506505       0.04974886       0.10434698       0.11889485
Ar      11.76602680      11.33159596       9.24072050       0.00177497      -0.10451295      -0.09769961
Ar       8.48846137      11.31368736       8.07510541      -0.06048304      -0.00229320      -0.00657125
7
Lattice="20.9 0.0 0.0 0.0 20.1 0.0 0.0 0.0 23.1" Properties=species:S:1:pos:R:3:forces:R:3 config_id=ar7_shape2_r3.2 family=2 min_distance_A=3.2 dataset_index=30 role=training geometry_seed=none-deterministic minimum_face_vacuum_A=7.787258300203048 method=PBE-D3(BJ) encut_eV=420.0 converged=T vasp_version=6.3.2 elapsed_seconds=127.010662317276 scf_iterations=26 fingerprint=885796ccf9c2262b7284bc6a044aa5c50be27d28dc3f8d0269503abb03a08f3c calculation_group=production_ar7 session_id=ar7_20260922-183543_1694346 session_step=7 energy_kind=VASP_extrapolated_zero_smearing isolated_atom_energy_eV=-0.02435806 interaction_energy_eV=0.45570538 interaction_energy_per_atom_eV=0.06510076857142857 energy=0.28519896 free_energy=0.28519896 pbc="T T T"
Ar      12.71274170      10.05000000      11.55000000       0.58872190      -0.14710265      -0.14730276
Ar      10.45000000      12.31274170      11.55000000      -0.14715425       0.59015648      -0.14731741
Ar      10.45000000      10.05000000      13.81274170      -0.14714032      -0.14710268       0.59006452
Ar       8.18725830      10.05000000      11.55000000      -0.59024800       0.00074884       0.00054447
Ar      10.45000000       7.78725830      11.55000000       0.00070518      -0.59159416       0.00054613
Ar      10.45000000      10.05000000       9.28725830       0.00070542       0.00074914      -0.59190891
Ar      12.71274170      12.31274170      13.81274170       0.29441007       0.29414502       0.29537396
7
Lattice="19.9 0.0 0.0 0.0 20.7 0.0 0.0 0.0 18.9" Properties=species:S:1:pos:R:3:forces:R:3 config_id=ar7_distorted_09 role=distorted subset=random-distorted subset_index=49 atom_count=7 geometry_seed=381382 random_radius_A=5.0 minimum_pair_distance_A=2.5 min_distance_A=3.031422177641934 max_distance_A=8.183542687825973 minimum_face_vacuum_A=6.10658463021452 method=PBE-D3(BJ) encut_eV=420.0 converged=T vasp_version=6.3.2 elapsed_seconds=81.7081778049469 scf_iterations=30 fingerprint=f130b83832252dd46b7dafab2a64aa85480599e012cf1420238bb6fb24bdeaff calculation_group=distorted_ar7 session_id=ar7_20260922-201430_2562936 session_step=9 energy_kind=VASP_extrapolated_zero_smearing isolated_atom_energy_eV=-0.02437958 interaction_energy_eV=0.019807820000000004 interaction_energy_per_atom_eV=0.002829688571428572 energy=-0.15084924 free_energy=-0.15084924 pbc="T T T"
Ar      12.20593133       6.58688468       9.21804811      -0.00708365       0.00652461       0.00843974
Ar       7.65733942      11.89821062      10.17816589       0.00862494       0.03962056       0.07023865
Ar       7.32603420       9.30876508       7.92248504      -0.00008191      -0.04459927      -0.04548846
Ar      12.57396580      11.80604224       6.10658463       0.03303797      -0.06685075      -0.05793870
Ar      10.12935453       8.23988767      12.79341537       0.00172693       0.00005755      -0.01427369
Ar      11.17934059      14.11311532       8.14175606       0.33131427       0.14692849       0.21490854
Ar       8.42457791      13.50707731       7.03111620      -0.36753855      -0.08168119      -0.17588609
7
Lattice="20.9 0.0 0.0 0.0 20.1 0.0 0.0 0.0 23.1" Properties=species:S:1:pos:R:3:forces:R:3 config_id=ar7_shape5_r3.2 family=5 min_distance_A=3.2 dataset_index=90 role=training geometry_seed=none-deterministic minimum_face_vacuum_A=7.124153019803676 method=PBE-D3(BJ) encut_eV=420.0 converged=T vasp_version=6.3.2 elapsed_seconds=112.3878664970398 scf_iterations=23 fingerprint=4f8eccd4fdc6e267b9236821f080c07279cb7f4abd54dc92cae50c2c4e279fb2 calculation_group=production_ar7 session_id=ar7_20260922-183543_1694346 session_step=18 energy_kind=VASP_extrapolated_zero_smearing isolated_atom_energy_eV=-0.02435806 interaction_energy_eV=0.03708224999999998 interaction_energy_per_atom_eV=0.005297464285714283 energy=-0.13342417 free_energy=-0.13342417 pbc="T T T"
Ar      12.88820582      10.05000000      11.55000000       0.34123115      -0.03068443      -0.02124030
Ar      10.45000000      12.97584698      11.55000000      -0.16614193       0.07335427      -0.14082698
Ar      10.45000000      10.05000000      13.62247494      -0.00515103      -0.00630614       0.32368318
Ar       8.01179418      10.05000000      11.55000000      -0.33852503       0.00063918       0.00047920
Ar      10.45000000       7.12415302      11.55000000       0.00011463      -0.06967148       0.00030869
Ar      10.45000000      10.05000000       9.47752506       0.00056187       0.00094461      -0.32076595
Ar      12.88820582      12.97584698      13.62247494       0.16791034       0.03172399       0.15836216
6
Lattice="20.9 0.0 0.0 0.0 19.7 0.0 0.0 0.0 21.0" Properties=species:S:1:pos:R:3:forces:R:3 config_id=ar6_shape1_r4.4 family=1 min_distance_A=4.4 dataset_index=9 role=training geometry_seed=none-deterministic minimum_face_vacuum_A=6.7387301627791905 method=PBE-D3(BJ) encut_eV=420.0 converged=T vasp_version=6.3.2 elapsed_seconds=64.27422785758972 scf_iterations=20 fingerprint=6e41b3cceefbdcfaca5d8fbb0724a361c6f33c5226bd3645d9f2c2477fef49c2 calculation_group=production_ar6 session_id=ar6_20260922-180308_1589050 session_step=4 energy_kind=VASP_extrapolated_zero_smearing isolated_atom_energy_eV=-0.02438137 interaction_energy_eV=-0.11788395999999998 interaction_energy_per_atom_eV=-0.019647326666666663 energy=-0.26417218 free_energy=-0.26417218 pbc="T T T"
Ar      13.56126984       9.85000000      10.50000000      -0.02901678      -0.00000360      -0.00001336
Ar      10.45000000      12.96126984      10.50000000      -0.00000414      -0.03165122      -0.00000384
Ar      10.45000000       9.85000000      13.61126984      -0.00000705      -0.00000353      -0.03028002
Ar       7.33873016       9.85000000      10.50000000       0.02901678       0.00000363       0.00001338
Ar      10.45000000       6.73873016      10.50000000       0.00000414       0.03165116       0.00000391
Ar      10.45000000       9.85000000       7.38873016       0.00000705       0.00000356       0.03027994
3
Lattice="20.1 0.0 0.0 0.0 17.5 0.0 0.0 0.0 12.0" Properties=species:S:1:pos:R:3:forces:R:3 config_id=ar3_shape4_r4.4 family=4 min_distance_A=4.4 dataset_index=76 role=training geometry_seed=none-deterministic minimum_face_vacuum_A=6.0 method=PBE-D3(BJ) encut_eV=420.0 converged=T vasp_version=6.3.2 elapsed_seconds=34.21980619430542 scf_iterations=30 fingerprint=9b727acbc0822d80ecc9db075bffede8c6e6ea057eaa28d777b58c5856851963 calculation_group=production_ar3 session_id=ar3_20260922-171909_1589050 session_step=4 energy_kind=VASP_extrapolated_zero_smearing isolated_atom_energy_eV=-0.02439065 interaction_energy_eV=-0.016593560000000007 interaction_energy_per_atom_eV=-0.005531186666666669 energy=-0.08976551 free_energy=-0.08976551 pbc="T T T"
Ar       7.85000000       6.33000000       6.00000000       0.01314738       0.00055668       0.00000061
Ar      12.25000000       6.33000000       6.00000000      -0.01378465       0.00645389      -0.00000274
Ar      11.37000000      11.17000000       6.00000000       0.00063727      -0.00701057       0.00000213
4
Lattice="18.3 0.0 0.0 0.0 18.3 0.0 0.0 0.0 16.6" Properties=species:S:1:pos:R:3:forces:R:3 config_id=ar4_shape4_r3.2 family=4 min_distance_A=3.2 dataset_index=77 role=training geometry_seed=none-deterministic minimum_face_vacuum_A=7.4280186390473375 method=PBE-D3(BJ) encut_eV=420.0 converged=T vasp_version=6.3.2 elapsed_seconds=36.384904861450195 scf_iterations=21 fingerprint=2917a32ea91774b78daf7b42cae527625466e3bddd20f09e8608a11aee191442 calculation_group=production_ar4 session_id=ar4_20260922-172423_1589050 session_step=15 energy_kind=VASP_extrapolated_zero_smearing isolated_atom_energy_eV=-0.02436924 interaction_energy_eV=0.09704972 interaction_energy_per_atom_eV=0.02426243 energy=-0.00042724 free_energy=-0.00042724 pbc="T T T"
Ar      10.49150979      10.49150979       9.17198136       0.18648436       0.18648436       0.23502576
Ar      10.49150979       7.80849021       7.42801864       0.18648436      -0.18648436      -0.23502535
Ar       7.80849021      10.49150979       7.42801864      -0.18648436       0.18648436      -0.23502535
Ar       7.80849021       7.80849021       9.17198136      -0.18648436      -0.18648436       0.23502493
3
Lattice="20.1 0.0 0.0 0.0 17.5 0.0 0.0 0.0 12.0" Properties=species:S:1:pos:R:3:forces:R:3 config_id=ar3_shape5_r3.8 family=5 min_distance_A=3.8 dataset_index=91 role=training geometry_seed=none-deterministic minimum_face_vacuum_A=6.0 method=PBE-D3(BJ) encut_eV=420.0 converged=T vasp_version=6.3.2 elapsed_seconds=24.224607706069946 scf_iterations=21 fingerprint=9f5729f01acb889c33d09e4781749faa7809eed00c9d654cef8aa28f32cefa9d calculation_group=production_ar3 session_id=ar3_20260922-171909_1589050 session_step=10 energy_kind=VASP_extrapolated_zero_smearing isolated_atom_energy_eV=-0.02439065 interaction_energy_eV=-0.032448580000000005 interaction_energy_per_atom_eV=-0.010816193333333335 energy=-0.10562053 free_energy=-0.10562053 pbc="T T T"
Ar       8.71498427       6.93819294       6.00000000      -0.00019480      -0.00146213       0.00000148
Ar      12.52931493       6.93819294       6.00000000       0.00006771       0.00124868      -0.00000021
Ar       7.57068507      10.56180706       6.00000000       0.00012709       0.00021345      -0.00000127
6
Lattice="20.9 0.0 0.0 0.0 19.7 0.0 0.0 0.0 21.0" Properties=species:S:1:pos:R:3:forces:R:3 config_id=ar6_shape3_r4.4 family=3 min_distance_A=4.4 dataset_index=49 role=training geometry_seed=none-deterministic minimum_face_vacuum_A=6.039488223348467 method=PBE-D3(BJ) encut_eV=420.0 converged=T vasp_version=6.3.2 elapsed_seconds=78.38758683204651 scf_iterations=24 fingerprint=1332ca7425bd39d29d1a3e4f337fce2af9dd92934518e017ee40c5fca79f2e5a calculation_group=production_ar6 session_id=ar6_20260922-180308_1589050 session_step=12 energy_kind=VASP_extrapolated_zero_smearing isolated_atom_energy_eV=-0.02438137 interaction_energy_eV=-0.06294962000000001 interaction_energy_per_atom_eV=-0.010491603333333335 energy=-0.20923784 free_energy=-0.20923784 pbc="T T T"
Ar      14.85000000       9.85000000      10.50000000      -0.01173100      -0.00000001      -0.00000079
Ar      12.65000000      13.66051178      10.50000000      -0.00628796      -0.01054771       0.00000195
Ar       8.25000000      13.66051178      10.50000000       0.00628794      -0.01054768       0.00000113
Ar       6.05000000       9.85000000      10.50000000       0.01173099       0.00000001       0.00000079
Ar       8.25000000       6.03948822      10.50000000       0.00628796       0.01054771      -0.00000195
Ar      12.65000000       6.03948822      10.50000000      -0.00628794       0.01054767      -0.00000113
5
Lattice="19.7 0.0 0.0 0.0 20.2 0.0 0.0 0.0 20.3" Properties=species:S:1:pos:R:3:forces:R:3 config_id=ar5_distorted_05 role=distorted subset=random-distorted subset_index=25 atom_count=5 geometry_seed=379378 random_radius_A=5.0 minimum_pair_distance_A=2.5 min_distance_A=3.0817327455119 max_distance_A=8.155759751092855 minimum_face_vacuum_A=6.445389654863833 method=PBE-D3(BJ) encut_eV=420.0 converged=T vasp_version=6.3.2 elapsed_seconds=94.55117535591125 scf_iterations=33 fingerprint=8cbe2026f1de9e6870c44296a9ba1664f68e9b082ed9c03971fbce3ab28f0ff9 calculation_group=distorted_ar5 session_id=ar5_20260922-194301_1867103 session_step=5 energy_kind=VASP_extrapolated_zero_smearing isolated_atom_energy_eV=-0.02433363 interaction_energy_eV=0.03338950999999998 interaction_energy_per_atom_eV=0.006677901999999997 energy=-0.08827864 free_energy=-0.08827864 pbc="T T T"
Ar      12.45599666      12.46016742      12.88887759      -0.00921584       0.00136332      -0.00216937
Ar       7.91442609      13.75461035      12.55337374       0.00902641      -0.00483196      -0.00060012
Ar       9.38724188       8.53296609       8.39256944       0.09045162      -0.31208170       0.11464063
Ar       7.24400334       6.44538965      11.10730773       0.00545603       0.00648406      -0.00600203
Ar       8.52490794      11.32406240       7.41112241      -0.09571821       0.30906629      -0.10586911
5
Lattice="18.9 0.0 0.0 0.0 20.3 0.0 0.0 0.0 21.9" Properties=species:S:1:pos:R:3:forces:R:3 config_id=ar5_shape2_r3.2 family=2 min_distance_A=3.2 dataset_index=28 role=training geometry_seed=none-deterministic minimum_face_vacuum_A=7.187258300203046 method=PBE-D3(BJ) encut_eV=420.0 converged=T vasp_version=6.3.2 elapsed_seconds=68.21122002601624 scf_iterations=23 fingerprint=1c32166775246e4002cfd6f4a0214f898be5623b296618459849d750e58e52a3 calculation_group=production_ar5 session_id=ar5_20260922-173715_1589050 session_step=7 energy_kind=VASP_extrapolated_zero_smearing isolated_atom_energy_eV=-0.02437161 interaction_energy_eV=0.23458561 interaction_energy_per_atom_eV=0.046917122 energy=0.11272756 free_energy=0.11272756 pbc="T T T"
Ar      11.71274170      10.15000000       9.81862915       0.44612348       0.00000000      -0.14931008
Ar       9.45000000      12.41274170       9.81862915       0.00000000       0.44811115      -0.14932388
Ar       7.18725830      10.15000000       9.81862915      -0.44612348       0.00000000      -0.14931483
Ar       9.45000000       7.88725830       9.81862915       0.00000000      -0.44811115      -0.14932829
Ar       9.45000000      10.15000000      12.08137085      -0.00000000      -0.00000000       0.59727708
6
Lattice="20.0 0.0 0.0 0.0 19.7 0.0 0.0 0.0 19.4" Properties=species:S:1:pos:R:3:forces:R:3 config_id=ar6_distorted_04 role=distorted subset=random-distorted subset_index=34 atom_count=6 geometry_seed=380377 random_radius_A=5.0 minimum_pair_distance_A=2.5 min_distance_A=3.522369102149896 max_distance_A=8.3282402918078 minimum_face_vacuum_A=6.8470615964046155 method=PBE-D3(BJ) encut_eV=420.0 converged=T vasp_version=6.3.2 elapsed_seconds=81.23471856117249 scf_iterations=31 fingerprint=ec4856ecfc9a24ee3d12d1eaae113739ffd6a5d1a0673ff0d329eba5ad89da32 calculation_group=distorted_ar6 session_id=ar6_20260922-200309_2562936 session_step=2 energy_kind=VASP_extrapolated_zero_smearing isolated_atom_energy_eV=-0.02436677 interaction_energy_eV=-0.06215271 interaction_energy_per_atom_eV=-0.010358785 energy=-0.20835333 free_energy=-0.20835333 pbc="T T T"
Ar      13.15293840      11.01022482       7.48003598      -0.00491066      -0.00473097       0.00296427
Ar       9.72057574       7.19180103       7.96065877      -0.00519592       0.01546910       0.01033942
Ar       8.30088322      12.50819897      10.86601276       0.01651305       0.03047014       0.00360682
Ar      13.02918442       7.25439925      11.91996402      -0.00397711       0.00183717      -0.00554737
Ar       6.84706160       9.23211896      10.69275196      -0.00825665      -0.05995759       0.03455234
Ar       6.93500032      10.97503442       7.63307933       0.00582729       0.01691214      -0.04591549
7
Lattice="20.9 0.0 0.0 0.0 20.1 0.0 0.0 0.0 23.1" Properties=species:S:1:pos:R:3:forces:R:3 config_id=ar7_shape3_r4.4 family=3 min_distance_A=4.4 dataset_index=60 role=training geometry_seed=none-deterministic minimum_face_vacuum_A=6.049999999999997 method=PBE-D3(BJ) encut_eV=420.0 converged=T vasp_version=6.3.2 elapsed_seconds=117.06570839881897 scf_iterations=24 fingerprint=b72820d94eba963b2fcd86b70d6082b3e1f0bbe2df9203ad9de0a147c1a7427d calculation_group=production_ar7 session_id=ar7_20260922-183543_1694346 session_step=12 energy_kind=VASP_extrapolated_zero_smearing isolated_atom_energy_eV=-0.02435806 interaction_energy_eV=-0.11907588000000002 interaction_energy_per_atom_eV=-0.017010840000000003 energy=-0.2895823 free_energy=-0.2895823 pbc="T T T"
Ar      14.85000000      10.05000000      11.55000000      -0.02137053      -0.00000181      -0.00000039
Ar      12.65000000      13.86051178      11.55000000      -0.01125111      -0.01879487       0.00000143
Ar       8.25000000      13.86051178      11.55000000       0.01125032      -0.01879584       0.00000062
Ar       6.05000000      10.05000000      11.55000000       0.02137053       0.00000181       0.00000039
Ar       8.25000000       6.23948822      11.55000000       0.01125111       0.01879487      -0.00000143
Ar      12.65000000       6.23948822      11.55000000      -0.01125032       0.01879584      -0.00000062
Ar      10.45000000      10.05000000      11.55000000       0.00000000      -0.00000000       0.00000000
3
Lattice="20.1 0.0 0.0 0.0 17.5 0.0 0.0 0.0 12.0" Properties=species:S:1:pos:R:3:forces:R:3 config_id=ar3_shape3_r4.4 family=3 min_distance_A=4.4 dataset_index=56 role=training geometry_seed=none-deterministic minimum_face_vacuum_A=6.0 method=PBE-D3(BJ) encut_eV=420.0 converged=T vasp_version=6.3.2 elapsed_seconds=25.36160945892334 scf_iterations=22 fingerprint=79af24fe82861d06ef4518628ac3ec1260f51718a287694b8e2f8bf1ddc88dde calculation_group=production_ar3 session_id=ar3_20260922-171909_1589050 session_step=3 energy_kind=VASP_extrapolated_zero_smearing isolated_atom_energy_eV=-0.02439065 interaction_energy_eV=-0.013035850000000002 interaction_energy_per_atom_eV=-0.004345283333333334 energy=-0.0862078 free_energy=-0.0862078 pbc="T T T"
Ar       7.85000000       6.00000000       6.00000000       0.01351076       0.00338245       0.00000280
Ar      12.25000000       6.00000000       6.00000000      -0.01294690       0.00116960      -0.00000058
Ar       8.73000000      11.50000000       6.00000000      -0.00056386      -0.00455205      -0.00000222
5
Lattice="18.9 0.0 0.0 0.0 20.3 0.0 0.0 0.0 21.9" Properties=species:S:1:pos:R:3:forces:R:3 config_id=ar5_shape3_r3.2 family=3 min_distance_A=3.2 dataset_index=48 role=training geometry_seed=none-deterministic minimum_face_vacuum_A=6.987853170259797 method=PBE-D3(BJ) encut_eV=420.0 converged=T vasp_version=6.3.2 elapsed_seconds=63.03582978248596 scf_iterations=21 fingerprint=f728fd26a5f812afaef41ef93b331c9b2c4b3e7cf994ba4840d5286a1eae4a85 calculation_group=production_ar5 session_id=ar5_20260922-173715_1589050 session_step=10 energy_kind=VASP_extrapolated_zero_smearing isolated_atom_energy_eV=-0.02437161 interaction_energy_eV=0.12265311999999999 interaction_energy_per_atom_eV=0.024530623999999997 energy=0.00079507 free_energy=0.00079507 pbc="T T T"
Ar      11.91214683      10.15000000      10.95000000       0.24905203      -0.00000000      -0.00000093
Ar      10.03123402      12.73885438      10.95000000       0.07726195       0.23497348      -0.00000317
Ar       6.98785317      11.75000000      10.95000000      -0.20178796       0.14520797       0.00000245
Ar       6.98785317       8.55000000      10.95000000      -0.20178797      -0.14520797       0.00000062
Ar      10.03123402       7.56114562      10.95000000       0.07726195      -0.23497348       0.00000103
7
Lattice="20.9 0.0 0.0 0.0 20.1 0.0 0.0 0.0 23.1" Properties=species:S:1:pos:R:3:forces:R:3 config_id=ar7_shape5_r4.4 family=5 min_distance_A=4.4 dataset_index=100 role=training geometry_seed=none-deterministic minimum_face_vacuum_A=6.0269604022300545 method=PBE-D3(BJ) encut_eV=420.0 converged=T vasp_version=6.3.2 elapsed_seconds=136.57235741615295 scf_iterations=28 fingerprint=bd80e1e34174d092feb4d0d941a132a83913b9e1e38b4d31f5cec237ecfc32c5 calculation_group=production_ar7 session_id=ar7_20260922-183543_1694346 session_step=20 energy_kind=VASP_extrapolated_zero_smearing isolated_atom_energy_eV=-0.02435806 interaction_energy_eV=-0.09322459999999999 interaction_energy_per_atom_eV=-0.0133178 energy=-0.26373102 free_energy=-0.26373102 pbc="T T T"
Ar      13.80253300      10.05000000      11.55000000      -0.02198895       0.00520032       0.00373733
Ar      10.45000000      14.07303960      11.55000000       0.00872736      -0.01702442       0.00748500
Ar      10.45000000      10.05000000      14.39965305       0.00245061       0.00295323      -0.02410194
Ar       7.09746700      10.05000000      11.55000000       0.02222576       0.00001420       0.00002807
Ar      10.45000000       6.02696040      11.55000000      -0.00003728       0.01736422       0.00000854
Ar      10.45000000      10.05000000       8.70034695       0.00001276       0.00004974       0.02441255
Ar      13.80253300      14.07303960      14.39965305      -0.01139026      -0.00855729      -0.01156956
6
Lattice="20.0 0.0 0.0 0.0 19.7 0.0 0.0 0.0 19.4" Properties=species:S:1:pos:R:3:forces:R:3 config_id=ar6_distorted_06 role=distorted subset=random-distorted subset_index=36 atom_count=6 geometry_seed=380379 random_radius_A=5.0 minimum_pair_distance_A=2.5 min_distance_A=3.108344123123329 max_distance_A=8.290862467663347 minimum_face_vacuum_A=6.024597326194632 method=PBE-D3(BJ) encut_eV=420.0 converged=T vasp_version=6.3.2 elapsed_seconds=80.34114193916321 scf_iterations=30 fingerprint=9971db00224ffa1207a6791b09dfc0bc10e8be0db033adb23a95f7c0defef79a calculation_group=distorted_ar6 session_id=ar6_20260922-200309_2562936 session_step=4 energy_kind=VASP_extrapolated_zero_smearing isolated_atom_energy_eV=-0.02436677 interaction_energy_eV=-0.015753230000000007 interaction_energy_per_atom_eV=-0.0026255383333333346 energy=-0.16195385 free_energy=-0.16195385 pbc="T T T"
Ar       7.49162147      13.67540267       9.43245180       0.00052575      -0.00839185      -0.00242563
Ar      12.60605909       8.53572932      11.62009750      -0.01807039      -0.00396129      -0.00397248
Ar      10.49624963       6.02459733       8.34811441      -0.00816469       0.01732403       0.00863544
Ar       8.13805983       9.56268500       6.55304021       0.00351293      -0.00296618       0.00919281
Ar       8.43875185       8.96202054      12.84695979       0.11566010       0.08493527       0.27075083
Ar       7.39394091       8.10155879      10.04878559      -0.09346370      -0.08693997      -0.28218096
3
Lattice="19.8 0.0 0.0 0.0 19.4 0.0 0.0 0.0 18.2" Properties=species:S:1:pos:R:3:forces:R:3 config_id=ar3_distorted_01 role=distorted subset=random-distorted subset_index=1 atom_count=3 geometry_seed=377374 random_radius_A=5.0 minimum_pair_distance_A=2.5 min_distance_A=3.5013760431719025 max_distance_A=7.3849107182128035 minimum_face_vacuum_A=6.792451227655962 method=PBE-D3(BJ) encut_eV=420.0 converged=T vasp_version=6.3.2 elapsed_seconds=27.119971752166748 scf_iterations=13 fingerprint=254da6b29bc0d11d4d135adea5b94ff747f5d9975a6982f3b43b3f533ccc6c29 calculation_group=distorted_ar3 session_id=ar3_20260922-191806_1867103 session_step=1 energy_kind=VASP_extrapolated_zero_smearing isolated_atom_energy_eV=-0.02437898 interaction_energy_eV=-0.009945679999999985 interaction_energy_per_atom_eV=-0.0033152266666666617 energy=-0.08308262 free_energy=-0.08308262 pbc="T T T"
Ar       9.59710001       6.79245123       7.89345890       0.03588252      -0.01230113      -0.03516943
Ar       7.20611218       7.64088845      10.30654110      -0.03544339       0.01254261       0.03534061
Ar      12.59388782      12.60754877       9.38944502      -0.00043913      -0.00024148      -0.00017118
5
Lattice="18.9 0.0 0.0 0.0 20.3 0.0 0.0 0.0 21.9" Properties=species:S:1:pos:R:3:forces:R:3 config_id=ar5_shape1_r4.4 family=1 min_distance_A=4.4 dataset_index=18 role=training geometry_seed=none-deterministic minimum_face_vacuum_A=7.357415043918003 method=PBE-D3(BJ) encut_eV=420.0 converged=T vasp_version=6.3.2 elapsed_seconds=71.9257698059082 scf_iterations=24 fingerprint=70ae6978f0e9c98761326871fa58236f91ca43768e1f2235cc7f3b0f05cf677c calculation_group=production_ar5 session_id=ar5_20260922-173715_1589050 session_step=4 energy_kind=VASP_extrapolated_zero_smearing isolated_atom_energy_eV=-0.02437161 interaction_energy_eV=-0.08649020000000002 interaction_energy_per_atom_eV=-0.017298040000000004 energy=-0.20834825 free_energy=-0.20834825 pbc="T T T"
Ar      11.35525589      10.15000000      10.95000000      -0.03026818       0.00000003       0.00000107
Ar       7.54474411      12.35000000      10.95000000       0.01503329      -0.02509972       0.00000129
Ar       7.54474411       7.95000000      10.95000000       0.01503344       0.02509985      -0.00000235
Ar       8.81491470      10.15000000      14.54258496       0.00010073      -0.00000007      -0.02622550
Ar       8.81491470      10.15000000       7.35741504       0.00010073      -0.00000007       0.02622549
7
Lattice="20.9 0.0 0.0 0.0 20.1 0.0 0.0 0.0 23.1" Properties=species:S:1:pos:R:3:forces:R:3 config_id=ar7_shape3_r3.8 family=3 min_distance_A=3.8 dataset_index=55 role=training geometry_seed=none-deterministic minimum_face_vacuum_A=6.649999999999998 method=PBE-D3(BJ) encut_eV=420.0 converged=T vasp_version=6.3.2 elapsed_seconds=111.66946244239807 scf_iterations=23 fingerprint=0de029069b7ad19a182eb627ad7552de0ebc298cd73aec72d6267645006c1855 calculation_group=production_ar7 session_id=ar7_20260922-183543_1694346 session_step=11 energy_kind=VASP_extrapolated_zero_smearing isolated_atom_energy_eV=-0.02435806 interaction_energy_eV=-0.17137525000000003 interaction_energy_per_atom_eV=-0.024482178571428575 energy=-0.34188167 free_energy=-0.34188167 pbc="T T T"
Ar      14.25000000      10.05000000      11.55000000       0.01156170      -0.00000192      -0.00000063
Ar      12.35000000      13.34089653      11.55000000       0.00491275       0.00816572      -0.00000103
Ar       8.55000000      13.34089653      11.55000000      -0.00491316       0.00816170      -0.00000241
Ar       6.65000000      10.05000000      11.55000000      -0.01156170       0.00000193       0.00000063
Ar       8.55000000       6.75910347      11.55000000      -0.00491275      -0.00816572       0.00000103
Ar      12.35000000       6.75910347      11.55000000       0.00491317      -0.00816170       0.00000241
Ar      10.45000000      10.05000000      11.55000000       0.00000000       0.00000000       0.00000000
7
Lattice="20.9 0.0 0.0 0.0 20.1 0.0 0.0 0.0 23.1" Properties=species:S:1:pos:R:3:forces:R:3 config_id=ar7_shape1_r3.8 family=1 min_distance_A=3.8 dataset_index=15 role=training geometry_seed=none-deterministic minimum_face_vacuum_A=6.975735421375201 method=PBE-D3(BJ) encut_eV=420.0 converged=T vasp_version=6.3.2 elapsed_seconds=117.58339357376099 scf_iterations=24 fingerprint=70b76b4c3d8815d7b8c52763f067fd5daa7b4d50babb3a12c5ab3443bc13345e calculation_group=production_ar7 session_id=ar7_20260922-183543_1694346 session_step=3 energy_kind=VASP_extrapolated_zero_smearing isolated_atom_energy_eV=-0.02435806 interaction_energy_eV=-0.15621653000000002 interaction_energy_per_atom_eV=-0.022316647142857145 energy=-0.32672295 free_energy=-0.32672295 pbc="T T T"
Ar      13.37379936      10.05000000      11.55000000      -0.01174653      -0.00000002       0.00000114
Ar      11.14021540      13.12426458      11.55000000      -0.00437459      -0.00998891      -0.00000057
Ar       7.52620064      11.95000000      11.55000000       0.00895006      -0.00585805      -0.00000060
Ar       7.52620064       8.15000000      11.55000000       0.00895034       0.00585821      -0.00000142
Ar      11.14021540       6.97573542      11.55000000      -0.00437468       0.00998893       0.00000312
Ar      10.14132629      10.05000000      14.78247307       0.00129770      -0.00000008      -0.03165355
Ar      10.14132629      10.05000000       8.31752693       0.00129770      -0.00000008       0.03165188
6
Lattice="20.9 0.0 0.0 0.0 19.7 0.0 0.0 0.0 21.0" Properties=species:S:1:pos:R:3:forces:R:3 config_id=ar6_shape4_r4.4 family=4 min_distance_A=4.4 dataset_index=69 role=training geometry_seed=none-deterministic minimum_face_vacuum_A=6.033430409985867 method=PBE-D3(BJ) encut_eV=420.0 converged=T vasp_version=6.3.2 elapsed_seconds=129.47669625282288 scf_iterations=40 fingerprint=47009a776765ea6cc0b1112f2d4624d055f488810e72ce7fbfa59abd1d8963cb calculation_group=production_ar6 session_id=ar6_20260922-180308_1589050 session_step=13 energy_kind=VASP_extrapolated_zero_smearing isolated_atom_energy_eV=-0.02438137 interaction_energy_eV=-0.06319646000000001 interaction_energy_per_atom_eV=-0.010532743333333336 energy=-0.20948468 free_energy=-0.20948468 pbc="T T T"
Ar      13.88582276       9.85000000      10.50000000      -0.02202856       0.00000003       0.00000022
Ar      10.45000000      12.59865821      10.50000000       0.00000020      -0.02230311       0.00000012
Ar      10.45000000       9.85000000      14.96656959      -0.00000043      -0.00000010      -0.01080460
Ar       7.01417724       9.85000000      10.50000000       0.02202898       0.00000006      -0.00000049
Ar      10.45000000       7.10134179      10.50000000      -0.00000047       0.02230310      -0.00000085
Ar      10.45000000       9.85000000       6.03343041       0.00000027       0.00000002       0.01080560
7
Lattice="19.9 0.0 0.0 0.0 20.7 0.0 0.0 0.0 18.9" Properties=species:S:1:pos:R:3:forces:R:3 config_id=ar7_distorted_04 role=distorted subset=random-distorted subset_index=44 atom_count=7 geometry_seed=381377 random_radius_A=5.0 minimum_pair_distance_A=2.5 min_distance_A=3.280115714227612 max_distance_A=8.895222675966693 minimum_face_vacuum_A=6.024509011232664 method=PBE-D3(BJ) encut_eV=420.0 converged=T vasp_version=6.3.2 elapsed_seconds=95.94231009483337 scf_iterations=35 fingerprint=7e3587e1fa4dfbb820d38b6861c7a92f2e382ccdcca4cce4a4ef01060fe3e4e2 calculation_group=distorted_ar7 session_id=ar7_20260922-201430_2562936 session_step=4 energy_kind=VASP_extrapolated_zero_smearing isolated_atom_energy_eV=-0.02437958 interaction_energy_eV=-0.07796692 interaction_energy_per_atom_eV=-0.011138131428571427 energy=-0.24862398 free_energy=-0.24862398 pbc="T T T"
Ar       6.83846549      12.19287086       8.17191316       0.01857859       0.03153245       0.03071521
Ar       6.81439414      10.98827560      11.98981918      -0.09012791       0.12085958      -0.02828210
Ar       6.02450901       9.15578991       6.54719555      -0.00678101      -0.03528234      -0.01788730
Ar       8.92894208       8.50712914      12.35280445       0.10688861      -0.10681250       0.01031644
Ar      11.40726730      10.09204605       7.04717409      -0.00347145       0.00374842       0.01982942
Ar      10.96246302      12.18153438      10.90709387      -0.00852468      -0.02440490      -0.00835546
Ar      13.87549099       8.97053025      10.72484409      -0.01656215       0.01035930      -0.00633620
6
Lattice="20.9 0.0 0.0 0.0 19.7 0.0 0.0 0.0 21.0" Properties=species:S:1:pos:R:3:forces:R:3 config_id=ar6_shape1_r3.2 family=1 min_distance_A=3.2 dataset_index=19 role=training geometry_seed=none-deterministic minimum_face_vacuum_A=7.587258300203047 method=PBE-D3(BJ) encut_eV=420.0 converged=T vasp_version=6.3.2 elapsed_seconds=67.6403398513794 scf_iterations=21 fingerprint=a5d90588a4bc9295f9141cd2b7bde1435b27330b14c5526157585e20c64d293f calculation_group=production_ar6 session_id=ar6_20260922-180308_1589050 session_step=2 energy_kind=VASP_extrapolated_zero_smearing isolated_atom_energy_eV=-0.02438137 interaction_energy_eV=0.36408332 interaction_energy_per_atom_eV=0.06068055333333333 energy=0.2177951 free_energy=0.2177951 pbc="T T T"
Ar      12.71274170       9.85000000      10.50000000       0.59208321      -0.00000001       0.00000177
Ar      10.45000000      12.11274170      10.50000000      -0.00000001       0.59169403       0.00000151
Ar      10.45000000       9.85000000      12.76274170      -0.00000054       0.00000004       0.59143044
Ar       8.18725830       9.85000000      10.50000000      -0.59208322      -0.00000001      -0.00000177
Ar      10.45000000       7.58725830      10.50000000       0.00000001      -0.59169404      -0.00000151
Ar      10.45000000       9.85000000       8.23725830       0.00000054      -0.00000001      -0.59143044
6
Lattice="20.9 0.0 0.0 0.0 19.7 0.0 0.0 0.0 21.0" Properties=species:S:1:pos:R:3:forces:R:3 config_id=ar6_shape4_r3.2 family=4 min_distance_A=3.2 dataset_index=79 role=training geometry_seed=none-deterministic minimum_face_vacuum_A=7.251585752716994 method=PBE-D3(BJ) encut_eV=420.0 converged=T vasp_version=6.3.2 elapsed_seconds=77.09002876281738 scf_iterations=24 fingerprint=01c144450ec4caa6b8d315c300c9211685c6a76bfc03a92a29f4be5429c8b768 calculation_group=production_ar6 session_id=ar6_20260922-180308_1589050 session_step=15 energy_kind=VASP_extrapolated_zero_smearing isolated_atom_energy_eV=-0.02438137 interaction_energy_eV=0.011929339999999983 interaction_energy_per_atom_eV=0.0019882233333333305 energy=-0.13435888 free_energy=-0.13435888 pbc="T T T"
Ar      12.94878019       9.85000000      10.50000000       0.32996991      -0.00000000       0.00000036
Ar      10.45000000      11.84902415      10.50000000      -0.00000000       0.27777135       0.00000095
Ar      10.45000000       9.85000000      13.74841425       0.00000000      -0.00000000      -0.00041817
Ar       7.95121981       9.85000000      10.50000000      -0.32996991      -0.00000000      -0.00000036
Ar      10.45000000       7.85097585      10.50000000       0.00000000      -0.27777134      -0.00000095
Ar      10.45000000       9.85000000       7.25158575      -0.00000000      -0.00000000       0.00041817
3
Lattice="19.8 0.0 0.0 0.0 19.4 0.0 0.0 0.0 18.2" Properties=species:S:1:pos:R:3:forces:R:3 config_id=ar3_distorted_03 role=distorted subset=random-distorted subset_index=3 atom_count=3 geometry_seed=377376 random_radius_A=5.0 minimum_pair_distance_A=2.5 min_distance_A=4.28840827139285 max_distance_A=8.030773080141163 minimum_face_vacuum_A=6.028281919325092 method=PBE-D3(BJ) encut_eV=420.0 converged=T vasp_version=6.3.2 elapsed_seconds=67.86121726036072 scf_iterations=31 fingerprint=b0fbf70f4c945f049f0015a09bb40fc3e6eb414d4c7a5c217aa1307517256508 calculation_group=distorted_ar3 session_id=ar3_20260922-191806_1867103 session_step=3 energy_kind=VASP_extrapolated_zero_smearing isolated_atom_energy_eV=-0.02437898 interaction_energy_eV=-0.012207699999999988 interaction_energy_per_atom_eV=-0.004069233333333329 energy=-0.08534464 free_energy=-0.08534464 pbc="T T T"
Ar      13.77171808      10.72689952      10.06805525      -0.00114138       0.00007662       0.00029654
Ar       6.02828192      11.61233094       8.13194475       0.00518770      -0.01092183       0.00296130
Ar       7.48126091       7.78766906       9.41695799      -0.00404632       0.01084521      -0.00325785
3
Lattice="20.1 0.0 0.0 0.0 17.5 0.0 0.0 0.0 12.0" Properties=species:S:1:pos:R:3:forces:R:3 config_id=ar3_shape1_r4.4 family=1 min_distance_A=4.4 dataset_index=16 role=training geometry_seed=none-deterministic minimum_face_vacuum_A=6.0 method=PBE-D3(BJ) encut_eV=420.0 converged=T vasp_version=6.3.2 elapsed_seconds=22.65096139907837 scf_iterations=20 fingerprint=d7c53c630e5e7de76a1cb3c88a5f24d80955de711dbb05370af8b4f90f201f87 calculation_group=production_ar3 session_id=ar3_20260922-171328_1579226 session_step=4 energy_kind=VASP_extrapolated_zero_smearing isolated_atom_energy_eV=-0.02439065 interaction_energy_eV=-0.029870469999999996 interaction_energy_per_atom_eV=-0.009956823333333331 energy=-0.10304242 free_energy=-0.10304242 pbc="T T T"
Ar      11.95525589       8.75000000       6.00000000      -0.01962423       0.00000004      -0.00000035
Ar       8.14474411      10.95000000       6.00000000       0.00981210      -0.01596516       0.00000254
Ar       8.14474411       6.55000000       6.00000000       0.00981213       0.01596512      -0.00000219
5
Lattice="18.9 0.0 0.0 0.0 20.3 0.0 0.0 0.0 21.9" Properties=species:S:1:pos:R:3:forces:R:3 config_id=ar5_shape2_r3.8 family=2 min_distance_A=3.8 dataset_index=33 role=training geometry_seed=none-deterministic minimum_face_vacuum_A=6.762994231491119 method=PBE-D3(BJ) encut_eV=420.0 converged=T vasp_version=6.3.2 elapsed_seconds=69.15853261947632 scf_iterations=23 fingerprint=5a64bd4273eb5675ff90735cfc74e905d22a31fba6e1c6b9324773957ec5103e calculation_group=production_ar5 session_id=ar5_20260922-173715_1589050 session_step=6 energy_kind=VASP_extrapolated_zero_smearing isolated_atom_energy_eV=-0.02437161 interaction_energy_eV=-0.11506679 interaction_energy_per_atom_eV=-0.023013358 energy=-0.23692484 free_energy=-0.23692484 pbc="T T T"
Ar      12.13700577      10.15000000       9.60649712       0.01021298      -0.00000001      -0.00476772
Ar       9.45000000      12.83700577       9.60649712      -0.00000002       0.00995150      -0.00475153
Ar       6.76299423      10.15000000       9.60649712      -0.01021293       0.00000001      -0.00476287
Ar       9.45000000       7.46299423       9.60649712      -0.00000002      -0.00995150      -0.00475326
Ar       9.45000000      10.15000000      12.29350288      -0.00000002      -0.00000000       0.01903538
3
Lattice="20.1 0.0 0.0 0.0 17.5 0.0 0.0 0.0 12.0" Properties=species:S:1:pos:R:3:forces:R:3 config_id=ar3_shape5_r3.2 family=5 min_distance_A=3.2 dataset_index=86 role=training geometry_seed=none-deterministic minimum_face_vacuum_A=6.0 method=PBE-D3(BJ) encut_eV=420.0 converged=T vasp_version=6.3.2 elapsed_seconds=23.250338077545166 scf_iterations=20 fingerprint=1aa48b2594f2abddb07923341ab92a1334bf6c24e586eef65aaa9eeba4b2f3a6 calculation_group=production_ar3 session_id=ar3_20260922-171909_1589050 session_step=9 energy_kind=VASP_extrapolated_zero_smearing isolated_atom_energy_eV=-0.02439065 interaction_energy_eV=0.04839318 interaction_energy_per_atom_eV=0.01613106 energy=-0.02477877 free_energy=-0.02477877 pbc="T T T"
Ar       8.92577623       7.22426774       6.00000000      -0.13940654      -0.20384407      -0.00000010
Ar      12.13784415       7.22426774       6.00000000       0.20094662       0.00120836       0.00000105
Ar       7.96215585      10.27573226       6.00000000      -0.06154008       0.20263571      -0.00000095
4
Lattice="18.3 0.0 0.0 0.0 18.3 0.0 0.0 0.0 16.6" Properties=species:S:1:pos:R:3:forces:R:3 config_id=ar4_shape2_r3.8 family=2 min_distance_A=3.8 dataset_index=22 role=training geometry_seed=none-deterministic minimum_face_vacuum_A=6.46299423149112 method=PBE-D3(BJ) encut_eV=420.0 converged=T vasp_version=6.3.2 elapsed_seconds=36.49654841423035 scf_iterations=21 fingerprint=ad44a088e01f5c24242f623a1e48f67f8f451d0ad5a1399507ec6d952ddc99ac calculation_group=production_ar4 session_id=ar4_20260922-172423_1589050 session_step=6 energy_kind=VASP_extrapolated_zero_smearing isolated_atom_energy_eV=-0.02436924 interaction_energy_eV=-0.06639703 interaction_energy_per_atom_eV=-0.0165992575 energy=-0.16387399 free_energy=-0.16387399 pbc="T T T"
Ar      11.83700577       9.15000000       8.30000000       0.00151537      -0.00000001       0.00000002
Ar       9.15000000      11.83700577       8.30000000      -0.00000001       0.00151536       0.00000002
Ar       6.46299423       9.15000000       8.30000000      -0.00151537       0.00000001      -0.00000002
Ar       9.15000000       6.46299423       8.30000000       0.00000001      -0.00151536      -0.00000002
6
Lattice="20.0 0.0 0.0 0.0 19.7 0.0 0.0 0.0 19.4" Properties=species:S:1:pos:R:3:forces:R:3 config_id=ar6_distorted_05 role=distorted subset=random-distorted subset_index=35 atom_count=6 geometry_seed=380378 random_radius_A=5.0 minimum_pair_distance_A=2.5 min_distance_A=3.126224981825547 max_distance_A=9.339085263524236 minimum_face_vacuum_A=6.61171523981297 method=PBE-D3(BJ) encut_eV=420.0 converged=T vasp_version=6.3.2 elapsed_seconds=84.28228306770325 scf_iterations=32 fingerprint=9b68a6dfcd252b06769b40140771fabc647f440886123cbc7fe28eea804d3a3b calculation_group=distorted_ar6 session_id=ar6_20260922-200309_2562936 session_step=3 energy_kind=VASP_extrapolated_zero_smearing isolated_atom_energy_eV=-0.02436677 interaction_energy_eV=0.024543610000000007 interaction_energy_per_atom_eV=0.004090601666666668 energy=-0.12165701 free_energy=-0.12165701 pbc="T T T"
Ar       6.79111505      11.35982352      12.76054212       0.00413574      -0.00380210      -0.00233578
Ar       8.50650742       9.66650266       6.63945788       0.00662276      -0.00319463       0.00411282
Ar      13.20888495       7.83870437       6.96119190      -0.00689144       0.00419333       0.00367434
Ar      12.98532102      13.08828476      10.87820319       0.04079962       0.26880776      -0.08736638
Ar       8.83276906       6.61171524      11.32586549       0.00189272       0.00862779      -0.00148059
Ar      12.52814238      10.14438449      11.82568487      -0.04655940      -0.27463215       0.08339558
6
Lattice="20.0 0.0 0.0 0.0 19.7 0.0 0.0 0.0 19.4" Properties=species:S:1:pos:R:3:forces:R:3 config_id=ar6_distorted_01 role=distorted subset=random-distorted subset_index=31 atom_count=6 geometry_seed=380374 random_radius_A=5.0 minimum_pair_distance_A=2.5 min_distance_A=3.309859062261783 max_distance_A=7.506444277949774 minimum_face_vacuum_A=6.327257534449171 method=PBE-D3(BJ) encut_eV=420.0 converged=T vasp_version=6.3.2 elapsed_seconds=50.849695444107056 scf_iterations=16 fingerprint=1ba0fe0541ea1d30dd04550963c67374c104926ad9c4bbd67c6b427574ed11af calculation_group=distorted_ar6 session_id=ar6_20260922-195850_1867103 session_step=1 energy_kind=VASP_extrapolated_zero_smearing isolated_atom_energy_eV=-0.02436677 interaction_energy_eV=-0.017714829999999987 interaction_energy_per_atom_eV=-0.0029524716666666645 energy=-0.16391545 free_energy=-0.16391545 pbc="T T T"
Ar      11.05895879      13.37274247      10.32002823      -0.15190322       0.09566430       0.10306008
Ar       6.39329076      11.61543412       9.89962146       0.01553331      -0.00375799       0.00568620
Ar      12.71773556      12.34061009       7.64826301       0.03615293      -0.00192355      -0.21431821
Ar      10.70551803       6.32725753      11.66538603       0.03457944      -0.10543338      -0.00414115
Ar      13.60670924      11.17536568      10.65305015       0.09654247      -0.11143114       0.11851996
Ar       9.68613880       9.51594437      11.75173699      -0.03090494       0.12688175      -0.00880688
5
Lattice="18.9 0.0 0.0 0.0 20.3 0.0 0.0 0.0 21.9" Properties=species:S:1:pos:R:3:forces:R:3 config_id=ar5_shape5_r3.2 family=5 min_distance_A=3.2 dataset_index=88 role=training geometry_seed=none-deterministic minimum_face_vacuum_A=6.951219809782302 method=PBE-D3(BJ) encut_eV=420.0 converged=T vasp_version=6.3.2 elapsed_seconds=60.97520399093628 scf_iterations=20 fingerprint=50118590dee494994535b766a3dca2f2a256dd985e43704d0d8bd83d02cc21d0 calculation_group=production_ar5 session_id=ar5_20260922-173715_1589050 session_step=18 energy_kind=VASP_extrapolated_zero_smearing isolated_atom_energy_eV=-0.02437161 interaction_energy_eV=-0.018463869999999993 interaction_energy_per_atom_eV=-0.0036927739999999985 energy=-0.14032192 free_energy=-0.14032192 pbc="T T T"
Ar      11.94878019      10.15000000       9.95048792       0.16417048       0.00000000      -0.13610885
Ar       9.45000000      13.14853623       9.95048792      -0.00000051       0.02540014      -0.01794252
Ar       6.95121981      10.15000000       9.95048792      -0.16416942      -0.00000001      -0.13611407
Ar       9.45000000       7.15146377       9.95048792      -0.00000051      -0.02540014      -0.01794604
Ar       9.45000000      10.15000000      11.94951208      -0.00000003       0.00000001       0.30811149
4
Lattice="18.3 0.0 0.0 0.0 18.3 0.0 0.0 0.0 16.6" Properties=species:S:1:pos:R:3:forces:R:3 config_id=ar4_shape4_r3.8 family=4 min_distance_A=3.8 dataset_index=62 role=training geometry_seed=none-deterministic minimum_face_vacuum_A=7.264522133868714 method=PBE-D3(BJ) encut_eV=420.0 converged=T vasp_version=6.3.2 elapsed_seconds=37.789077043533325 scf_iterations=22 fingerprint=32181927e0f09e18ce1bf5f8b73d86aaa4b8015d8fa82c28869aae0da5eaa37d calculation_group=production_ar4 session_id=ar4_20260922-172423_1589050 session_step=14 energy_kind=VASP_extrapolated_zero_smearing isolated_atom_energy_eV=-0.02436924 interaction_energy_eV=-0.07386936999999999 interaction_energy_per_atom_eV=-0.018467342499999997 energy=-0.17134633 free_energy=-0.17134633 pbc="T T T"
Ar      10.74304287      10.74304287       9.33547787      -0.00138504      -0.00138502       0.00486881
Ar      10.74304287       7.55695713       7.26452213      -0.00138503       0.00138499      -0.00486974
Ar       7.55695713      10.74304287       7.26452213       0.00138501      -0.00138505      -0.00486972
Ar       7.55695713       7.55695713       9.33547787       0.00138506       0.00138508       0.00487065
3
Lattice="20.1 0.0 0.0 0.0 17.5 0.0 0.0 0.0 12.0" Properties=species:S:1:pos:R:3:forces:R:3 config_id=ar3_shape1_r3.8 family=1 min_distance_A=3.8 dataset_index=11 role=training geometry_seed=none-deterministic minimum_face_vacuum_A=6.0 method=PBE-D3(BJ) encut_eV=420.0 converged=T vasp_version=6.3.2 elapsed_seconds=25.125711679458618 scf_iterations=22 fingerprint=e9e1065410bfcfb578872f8b7faf87645129331f08e6f907606285e4618f8994 calculation_group=production_ar3 session_id=ar3_20260922-171328_1579226 session_step=3 energy_kind=VASP_extrapolated_zero_smearing isolated_atom_energy_eV=-0.02439065 interaction_energy_eV=-0.043740680000000004 interaction_energy_per_atom_eV=-0.014580226666666668 energy=-0.11691263 free_energy=-0.11691263 pbc="T T T"
Ar      11.69544827       8.75000000       6.00000000       0.00826990      -0.00000010      -0.00000066
Ar       8.40455173      10.65000000       6.00000000      -0.00413481       0.00628423       0.00000126
Ar       8.40455173       6.85000000       6.00000000      -0.00413510      -0.00628413      -0.00000060
3
Lattice="20.1 0.0 0.0 0.0 17.5 0.0 0.0 0.0 12.0" Properties=species:S:1:pos:R:3:forces:R:3 config_id=ar3_shape2_r4.4 family=2 min_distance_A=4.4 dataset_index=36 role=training geometry_seed=none-deterministic minimum_face_vacuum_A=6.0 method=PBE-D3(BJ) encut_eV=420.0 converged=T vasp_version=6.3.2 elapsed_seconds=28.489174365997314 scf_iterations=24 fingerprint=945ad5377b9030139ffa5cb9d20b6459e1908c1e2a175cb502fd503111f4d85b calculation_group=production_ar3 session_id=ar3_20260922-171328_1579226 session_step=5 energy_kind=VASP_extrapolated_zero_smearing isolated_atom_energy_eV=-0.02439065 interaction_energy_eV=-0.020437250000000004 interaction_energy_per_atom_eV=-0.006812416666666668 energy=-0.0936092 free_energy=-0.0936092 pbc="T T T"
Ar       6.03754538       7.84719771       6.00000000       0.01158140       0.00471798       0.00000069
Ar      10.05000000       9.65280229       6.00000000       0.00005968      -0.00968006       0.00000120
Ar      14.06245462       7.84719771       6.00000000      -0.01164108       0.00496208      -0.00000190
3
Lattice="20.1 0.0 0.0 0.0 17.5 0.0 0.0 0.0 12.0" Properties=species:S:1:pos:R:3:forces:R:3 config_id=ar3_shape5_r4.4 family=5 min_distance_A=4.4 dataset_index=96 role=training geometry_seed=none-deterministic minimum_face_vacuum_A=6.0 method=PBE-D3(BJ) encut_eV=420.0 converged=T vasp_version=6.3.2 elapsed_seconds=26.392775297164917 scf_iterations=23 fingerprint=30424dca0c9a1b12349b712acb7bb03663d4f253d641b27b2b5739fbc2baebe1 calculation_group=production_ar3 session_id=ar3_20260922-171909_1589050 session_step=11 energy_kind=VASP_extrapolated_zero_smearing isolated_atom_energy_eV=-0.02439065 interaction_energy_eV=-0.02065646 interaction_energy_per_atom_eV=-0.006885486666666667 energy=-0.09382841 free_energy=-0.09382841 pbc="T T T"
Ar       8.50419231       6.65211814       6.00000000       0.00846854       0.01224703       0.00000243
Ar      12.92078571       6.65211814       6.00000000      -0.01228059      -0.00074516       0.00000003
Ar       7.17921429      10.84788186       6.00000000       0.00381205      -0.01150187      -0.00000247
3
Lattice="19.8 0.0 0.0 0.0 19.4 0.0 0.0 0.0 18.2" Properties=species:S:1:pos:R:3:forces:R:3 config_id=ar3_distorted_02 role=distorted subset=random-distorted subset_index=2 atom_count=3 geometry_seed=377375 random_radius_A=5.0 minimum_pair_distance_A=2.5 min_distance_A=4.009820255611652 max_distance_A=4.999253390177756 minimum_face_vacuum_A=6.744393005985648 method=PBE-D3(BJ) encut_eV=420.0 converged=T vasp_version=6.3.2 elapsed_seconds=77.45680594444275 scf_iterations=36 fingerprint=85223e9ddc38aa39b516cf47277356ccccdacb3b5c62cc9a137bf8fe5d10e642 calculation_group=distorted_ar3 session_id=ar3_20260922-191806_1867103 session_step=2 energy_kind=VASP_extrapolated_zero_smearing isolated_atom_energy_eV=-0.02437898 interaction_energy_eV=-0.027618299999999985 interaction_energy_per_atom_eV=-0.009206099999999995 energy=-0.10075524 free_energy=-0.10075524 pbc="T T T"
Ar       8.40214752      11.15960181       9.11878118       0.00948061      -0.01244676       0.00058556
Ar       9.78749569       8.24039819       6.74439301      -0.00072832       0.00723008       0.01116282
Ar      11.39785248       8.69178298      11.45560699      -0.00875228       0.00521669      -0.01174838
5
Lattice="18.9 0.0 0.0 0.0 20.3 0.0 0.0 0.0 21.9" Properties=species:S:1:pos:R:3:forces:R:3 config_id=ar5_shape1_r3.2 family=1 min_distance_A=3.2 dataset_index=8 role=training geometry_seed=none-deterministic minimum_face_vacuum_A=8.064359353944896 method=PBE-D3(BJ) encut_eV=420.0 converged=T vasp_version=6.3.2 elapsed_seconds=68.9698383808136 scf_iterations=23 fingerprint=19d691c554e2598ef48349f06961677a8f74c0a87904f4df8e2670de8a58529d calculation_group=production_ar5 session_id=ar5_20260922-173715_1589050 session_step=2 energy_kind=VASP_extrapolated_zero_smearing isolated_atom_energy_eV=-0.02437161 interaction_energy_eV=0.27769114 interaction_energy_per_atom_eV=0.055538228 energy=0.15583309 free_energy=0.15583309 pbc="T T T"
Ar      10.83564065      10.15000000      10.95000000       0.60196901      -0.00000012       0.00000072
Ar       8.06435935      11.75000000      10.95000000      -0.30158110       0.52208988       0.00000121
Ar       8.06435935       8.55000000      10.95000000      -0.30158091      -0.52208971      -0.00000064
Ar       8.98811978      10.15000000      13.56278906       0.00059650      -0.00000002       0.51237603
Ar       8.98811978      10.15000000       8.33721094       0.00059650      -0.00000002      -0.51237732
5
Lattice="18.9 0.0 0.0 0.0 20.3 0.0 0.0 0.0 21.9" Properties=species:S:1:pos:R:3:forces:R:3 config_id=ar5_shape4_r3.2 family=4 min_distance_A=3.2 dataset_index=68 role=training geometry_seed=none-deterministic minimum_face_vacuum_A=7.357415043918005 method=PBE-D3(BJ) encut_eV=420.0 converged=T vasp_version=6.3.2 elapsed_seconds=70.20157146453857 scf_iterations=23 fingerprint=1fc579cd070b7adc4cad90de443354f10688a29429941d7f715d1e13136d73ca calculation_group=production_ar5 session_id=ar5_20260922-173715_1589050 session_step=15 energy_kind=VASP_extrapolated_zero_smearing isolated_atom_energy_eV=-0.02437161 interaction_energy_eV=-0.06719436000000001 interaction_energy_per_atom_eV=-0.013438872000000001 energy=-0.18905241 free_energy=-0.18905241 pbc="T T T"
Ar      11.18205081      10.15000000      10.95000000      -0.00135096       0.00000002       0.00000039
Ar       7.71794919      11.75000000      10.95000000       0.00057927       0.21338937      -0.00000025
Ar       7.71794919       8.55000000      10.95000000       0.00057929      -0.21338909      -0.00000207
Ar       8.87264973      10.15000000      14.54258496       0.00009617      -0.00000015      -0.02164654
Ar       8.87264973      10.15000000       7.35741504       0.00009623      -0.00000015       0.02164847
4
Lattice="18.3 0.0 0.0 0.0 18.3 0.0 0.0 0.0 16.6" Properties=species:S:1:pos:R:3:forces:R:3 config_id=ar4_shape3_r3.2 family=3 min_distance_A=3.2 dataset_index=57 role=training geometry_seed=none-deterministic minimum_face_vacuum_A=6.9859928767981625 method=PBE-D3(BJ) encut_eV=420.0 converged=T vasp_version=6.3.2 elapsed_seconds=36.58088541030884 scf_iterations=21 fingerprint=a6306c581a469267734a14531a487266777ed9fbb5701e3b49001c6efda99c11 calculation_group=production_ar4 session_id=ar4_20260922-172423_1589050 session_step=10 energy_kind=VASP_extrapolated_zero_smearing isolated_atom_energy_eV=-0.02436924 interaction_energy_eV=0.05950953 interaction_energy_per_atom_eV=0.0148773825 energy=-0.03796743 free_energy=-0.03796743 pbc="T T T"
Ar      11.02408514       9.15000000       7.30048792       0.15452379      -0.00000001      -0.13493630
Ar       7.27591486      11.31400712       7.30048792      -0.07722857       0.13369046      -0.13497684
Ar       7.27591486       6.98599288       7.30048792      -0.07722854      -0.13369046      -0.13497213
Ar       8.52530495       9.15000000       9.29951208      -0.00006668       0.00000000       0.40488527
3
Lattice="20.1 0.0 0.0 0.0 17.5 0.0 0.0 0.0 12.0" Properties=species:S:1:pos:R:3:forces:R:3 config_id=ar3_shape3_r3.2 family=3 min_distance_A=3.2 dataset_index=46 role=training geometry_seed=none-deterministic minimum_face_vacuum_A=6.0 method=PBE-D3(BJ) encut_eV=420.0 converged=T vasp_version=6.3.2 elapsed_seconds=19.387727975845337 scf_iterations=17 fingerprint=8d698e5a36f8ee2d4b9b3108073d273b0958ff8745395d6d02b807b65cffe630 calculation_group=production_ar3 session_id=ar3_20260922-171909_1589050 session_step=1 energy_kind=VASP_extrapolated_zero_smearing isolated_atom_energy_eV=-0.02439065 interaction_energy_eV=0.007320199999999999 interaction_energy_per_atom_eV=0.002440066666666666 energy=-0.06585175 free_energy=-0.06585175 pbc="T T T"
Ar       8.45000000       6.75000000       6.00000000      -0.21371784       0.00880220      -0.00000248
Ar      11.65000000       6.75000000       6.00000000       0.21221876       0.00539795       0.00000200
Ar       9.09000000      10.75000000       6.00000000       0.00149909      -0.01420016       0.00000048
4
Lattice="18.3 0.0 0.0 0.0 18.3 0.0 0.0 0.0 16.6" Properties=species:S:1:pos:R:3:forces:R:3 config_id=ar4_shape1_r3.2 family=1 min_distance_A=3.2 dataset_index=17 role=training geometry_seed=none-deterministic minimum_face_vacuum_A=7.168629150101525 method=PBE-D3(BJ) encut_eV=420.0 converged=T vasp_version=6.3.2 elapsed_seconds=34.92635941505432 scf_iterations=20 fingerprint=726acebcb0536a07623e4c72ba2947e567e3a25c40fac9d857a98752b20db2ba calculation_group=production_ar4 session_id=ar4_20260922-172423_1589050 session_step=2 energy_kind=VASP_extrapolated_zero_smearing isolated_atom_energy_eV=-0.02436924 interaction_energy_eV=0.18352298 interaction_energy_per_atom_eV=0.045880745 energy=0.08604602 free_energy=0.08604602 pbc="T T T"
Ar      10.28137085      10.28137085       9.43137085       0.29674983       0.29674977       0.29749803
Ar      10.28137085       8.01862915       7.16862915       0.29674974      -0.29674976      -0.29749913
Ar       8.01862915      10.28137085       7.16862915      -0.29674982       0.29674980      -0.29749928
Ar       8.01862915       8.01862915       9.43137085      -0.29674975      -0.29674982       0.29750038
4
Lattice="18.3 0.0 0.0 0.0 18.3 0.0 0.0 0.0 16.6" Properties=species:S:1:pos:R:3:forces:R:3 config_id=ar4_shape2_r3.2 family=2 min_distance_A=3.2 dataset_index=37 role=training geometry_seed=none-deterministic minimum_face_vacuum_A=6.887258300203047 method=PBE-D3(BJ) encut_eV=420.0 converged=T vasp_version=6.3.2 elapsed_seconds=37.81893968582153 scf_iterations=22 fingerprint=29ccb9e227480a9fd96d035f00c9e24bd94d25efaf731cd9720a128331aa7688 calculation_group=production_ar4 session_id=ar4_20260922-172423_1589050 session_step=7 energy_kind=VASP_extrapolated_zero_smearing isolated_atom_energy_eV=-0.02436924 interaction_energy_eV=0.10073533 interaction_energy_per_atom_eV=0.0251838325 energy=0.00325837 free_energy=0.00325837 pbc="T T T"
Ar      11.41274170       9.15000000       8.30000000       0.29984399      -0.00000000       0.00000208
Ar       9.15000000      11.41274170       8.30000000      -0.00000000       0.29984399       0.00000208
Ar       6.88725830       9.15000000       8.30000000      -0.29984399      -0.00000000      -0.00000208
Ar       9.15000000       6.88725830       8.30000000       0.00000000      -0.29984399      -0.00000208
3
Lattice="20.1 0.0 0.0 0.0 17.5 0.0 0.0 0.0 12.0" Properties=species:S:1:pos:R:3:forces:R:3 config_id=ar3_shape2_r3.2 family=2 min_distance_A=3.2 dataset_index=26 role=training geometry_seed=none-deterministic minimum_face_vacuum_A=6.0 method=PBE-D3(BJ) encut_eV=420.0 converged=T vasp_version=6.3.2 elapsed_seconds=25.818971633911133 scf_iterations=22 fingerprint=51a4462004bccdc057f84ee7c8115b24e56372304bf859ad2b2863de1b9d2960 calculation_group=production_ar3 session_id=ar3_20260922-171328_1579226 session_step=7 energy_kind=VASP_extrapolated_zero_smearing isolated_atom_energy_eV=-0.02439065 interaction_energy_eV=0.05232723 interaction_energy_per_atom_eV=0.017442410000000002 energy=-0.02084472 free_energy=-0.02084472 pbc="T T T"
Ar       7.13185118       8.09341652       6.00000000      -0.19423463      -0.08797045       0.00000165
Ar      10.05000000       9.40658348       6.00000000       0.00000001       0.17594087       0.00000005
Ar      12.96814882       8.09341652       6.00000000       0.19423463      -0.08797043      -0.00000170
4
Lattice="18.7 0.0 0.0 0.0 19.7 0.0 0.0 0.0 19.3" Properties=species:S:1:pos:R:3:forces:R:3 config_id=ar4_distorted_09 role=distorted subset=random-distorted subset_index=19 atom_count=4 geometry_seed=378382 random_radius_A=5.0 minimum_pair_distance_A=2.5 min_distance_A=3.150225291047699 max_distance_A=6.191625525176089 minimum_face_vacuum_A=6.747138011365882 method=PBE-D3(BJ) encut_eV=420.0 converged=T vasp_version=6.3.2 elapsed_seconds=87.25080394744873 scf_iterations=34 fingerprint=ef3e3582f43a6ed6a69bbca30d25eaa51de6c7ea65f0033b2a3c36a42689b4e7 calculation_group=distorted_ar4 session_id=ar4_20260922-193004_1867103 session_step=9 energy_kind=VASP_extrapolated_zero_smearing isolated_atom_energy_eV=-0.02437995 interaction_energy_eV=0.024347300000000002 interaction_energy_per_atom_eV=0.006086825000000001 energy=-0.0731725 free_energy=-0.0731725 pbc="T T T"
Ar       7.51613105       8.31720232      12.55286199      -0.01378447      -0.09008120       0.12960517
Ar      11.18386895      11.38279768       8.77434501       0.00872363       0.00237366      -0.00170026
Ar       8.05068154      10.40144115       6.74713801       0.02034802       0.01730620      -0.26126563
Ar       7.79831930      10.17989895       9.87941382      -0.01528719       0.07040135       0.13336073
7
Lattice="20.9 0.0 0.0 0.0 20.1 0.0 0.0 0.0 23.1" Properties=species:S:1:pos:R:3:forces:R:3 config_id=ar7_shape4_r3.8 family=4 min_distance_A=3.8 dataset_index=75 role=training geometry_seed=none-deterministic minimum_face_vacuum_A=6.796363129797422 method=PBE-D3(BJ) encut_eV=420.0 converged=T vasp_version=6.3.2 elapsed_seconds=127.37003350257874 scf_iterations=26 fingerprint=e998dafe0335b2215950728e909e03f53f8d32e6ea9d7a9b7e8fa48d09f1deb3 calculation_group=production_ar7 session_id=ar7_20260922-183543_1694346 session_step=14 energy_kind=VASP_extrapolated_zero_smearing isolated_atom_energy_eV=-0.02435806 interaction_energy_eV=-0.08067646 interaction_energy_per_atom_eV=-0.011525208571428571 energy=-0.25118288 free_energy=-0.25118288 pbc="T T T"
Ar      13.88976395      10.05000000      11.55000000      -0.01609576      -0.00000000       0.00000067
Ar      11.26201812      13.12426458      11.55000000      -0.00486224      -0.01408511      -0.00000263
Ar       7.01023605      11.95000000      11.55000000       0.01406824       0.00393461      -0.00000012
Ar       7.01023605       8.15000000      11.55000000       0.01406824      -0.00393461      -0.00000095
Ar      11.26201812       6.97573542      11.55000000      -0.00486224       0.01408511       0.00000106
Ar      10.08685446      10.05000000      16.30363687      -0.00115813       0.00000001      -0.00638727
Ar      10.08685446      10.05000000       6.79636313      -0.00115811       0.00000001       0.00638924
6
Lattice="20.9 0.0 0.0 0.0 19.7 0.0 0.0 0.0 21.0" Properties=species:S:1:pos:R:3:forces:R:3 config_id=ar6_shape5_r3.8 family=5 min_distance_A=3.8 dataset_index=84 role=training geometry_seed=none-deterministic minimum_face_vacuum_A=6.559103465619133 method=PBE-D3(BJ) encut_eV=420.0 converged=T vasp_version=6.3.2 elapsed_seconds=78.91016340255737 scf_iterations=25 fingerprint=021f40431d6fb3eedf5127d2ea41d7de8533f07406791c48b668e5a9ac298839 calculation_group=production_ar6 session_id=ar6_20260922-180308_1589050 session_step=19 energy_kind=VASP_extrapolated_zero_smearing isolated_atom_energy_eV=-0.02438137 interaction_energy_eV=-0.05671587 interaction_energy_per_atom_eV=-0.009452645 energy=-0.20300409 free_energy=-0.20300409 pbc="T T T"
Ar      12.82500000       9.85000000       8.60000000      -0.00261196       0.00000000      -0.00064740
Ar       8.07500000      13.14089653       8.60000000       0.00130598      -0.00241556      -0.00119106
Ar       8.07500000       6.55910347       8.60000000       0.00130598       0.00241556      -0.00118731
Ar      12.82500000       9.85000000      12.40000000      -0.00261196      -0.00000000       0.00064451
Ar       8.07500000      13.14089653      12.40000000       0.00130598      -0.00241557       0.00118875
Ar       8.07500000       6.55910347      12.40000000       0.00130598       0.00241557       0.00119250
5
Lattice="18.9 0.0 0.0 0.0 20.3 0.0 0.0 0.0 21.9" Properties=species:S:1:pos:R:3:forces:R:3 config_id=ar5_shape1_r3.8 family=1 min_distance_A=3.8 dataset_index=13 role=training geometry_seed=none-deterministic minimum_face_vacuum_A=7.804551732809564 method=PBE-D3(BJ) encut_eV=420.0 converged=T vasp_version=6.3.2 elapsed_seconds=65.9272849559784 scf_iterations=22 fingerprint=f83a98863eea3231e76510e6c1f6ec301fcc93c85bdcedd5a6fb47cc00a98551 calculation_group=production_ar5 session_id=ar5_20260922-173715_1589050 session_step=3 energy_kind=VASP_extrapolated_zero_smearing isolated_atom_energy_eV=-0.02437161 interaction_energy_eV=-0.12008542 interaction_energy_per_atom_eV=-0.024017084 energy=-0.24194347 free_energy=-0.24194347 pbc="T T T"
Ar      11.09544827      10.15000000      10.95000000       0.02143126       0.00000000      -0.00000013
Ar       7.80455173      12.05000000      10.95000000      -0.01114229       0.01742130       0.00000299
Ar       7.80455173       8.25000000      10.95000000      -0.01114228      -0.01742130      -0.00000117
Ar       8.90151724      10.15000000      14.05268701       0.00042666      -0.00000000       0.01441083
Ar       8.90151724      10.15000000       7.84731299       0.00042666      -0.00000000      -0.01441252
3
Lattice="19.8 0.0 0.0 0.0 19.4 0.0 0.0 0.0 18.2" Properties=species:S:1:pos:R:3:forces:R:3 config_id=ar3_distorted_09 role=distorted subset=random-distorted subset_index=9 atom_count=3 geometry_seed=377382 random_radius_A=5.0 minimum_pair_distance_A=2.5 min_distance_A=5.084046103914129 max_distance_A=7.862794126638507 minimum_face_vacuum_A=6.34732962918973 method=PBE-D3(BJ) encut_eV=420.0 converged=T vasp_version=6.3.2 elapsed_seconds=61.464483976364136 scf_iterations=28 fingerprint=23145a5c9e60147ca3cd09075ec4956ad253ccf3473c2569f4f6ff6dc84d81c9 calculation_group=distorted_ar3 session_id=ar3_20260922-191806_1867103 session_step=9 energy_kind=VASP_extrapolated_zero_smearing isolated_atom_energy_eV=-0.02437898 interaction_energy_eV=-0.007569009999999987 interaction_energy_per_atom_eV=-0.002523003333333329 energy=-0.08070595 free_energy=-0.08070595 pbc="T T T"
Ar      12.66669742      11.46640298       6.34732963      -0.00375467      -0.00430735       0.00121348
Ar       9.34391565       7.93359702       7.87242903       0.00195313       0.00595581       0.00198332
Ar       7.13330258      10.51967367      11.85267037       0.00180155      -0.00164846      -0.00319680
7
Lattice="20.9 0.0 0.0 0.0 20.1 0.0 0.0 0.0 23.1" Properties=species:S:1:pos:R:3:forces:R:3 config_id=ar7_shape2_r3.8 family=2 min_distance_A=3.8 dataset_index=35 role=training geometry_seed=none-deterministic minimum_face_vacuum_A=7.36299423149112 method=PBE-D3(BJ) encut_eV=420.0 converged=T vasp_version=6.3.2 elapsed_seconds=132.8829963207245 scf_iterations=27 fingerprint=894353eedf312dd005f752db7ef3363cd5717d1776d216db0bace60f29abc284 calculation_group=production_ar7 session_id=ar7_20260922-183543_1694346 session_step=6 energy_kind=VASP_extrapolated_zero_smearing isolated_atom_energy_eV=-0.02435806 interaction_energy_eV=-0.2051675 interaction_energy_per_atom_eV=-0.029309642857142857 energy=-0.37567392 free_energy=-0.37567392 pbc="T T T"
Ar      13.13700577      10.05000000      11.55000000       0.01978762      -0.00559047      -0.00571408
Ar      10.45000000      12.73700577      11.55000000      -0.00556704       0.01974916      -0.00572254
Ar      10.45000000      10.05000000      14.23700577      -0.00556681      -0.00559713       0.01935202
Ar       7.76299423      10.05000000      11.55000000      -0.01694615       0.00018006       0.00005592
Ar      10.45000000       7.36299423      11.55000000       0.00021198      -0.01697396       0.00005476
Ar      10.45000000      10.05000000       8.86299423       0.00021236       0.00017980      -0.01681442
Ar      13.13700577      12.73700577      14.23700577       0.00786805       0.00805256       0.00878835
4
Lattice="18.3 0.0 0.0 0.0 18.3 0.0 0.0 0.0 16.6" Properties=species:S:1:pos:R:3:forces:R:3 config_id=ar4_shape3_r4.4 family=3 min_distance_A=4.4 dataset_index=47 role=training geometry_seed=none-deterministic minimum_face_vacuum_A=6.174490205597474 method=PBE-D3(BJ) encut_eV=420.0 converged=T vasp_version=6.3.2 elapsed_seconds=37.938639879226685 scf_iterations=22 fingerprint=42c133e2d9780d1637e73f888f724286a4a04d7fa447cc2fa5d4881109b02842 calculation_group=production_ar4 session_id=ar4_20260922-172423_1589050 session_step=12 energy_kind=VASP_extrapolated_zero_smearing isolated_atom_energy_eV=-0.02436924 interaction_energy_eV=-0.03411594000000001 interaction_energy_per_atom_eV=-0.008528985000000003 energy=-0.1315929 free_energy=-0.1315929 pbc="T T T"
Ar      11.72686707       9.15000000       6.92567090      -0.01172188       0.00000000       0.00734517
Ar       6.57313293      12.12550979       6.92567090       0.00568263      -0.01048953       0.00737099
Ar       6.57313293       6.17449021       6.92567090       0.00568262       0.01048953       0.00737180
Ar       8.29104431       9.15000000       9.67432910       0.00035664       0.00000000      -0.02208796
4
Lattice="18.3 0.0 0.0 0.0 18.3 0.0 0.0 0.0 16.6" Properties=species:S:1:pos:R:3:forces:R:3 config_id=ar4_shape5_r3.2 family=5 min_distance_A=3.2 dataset_index=97 role=training geometry_seed=none-deterministic minimum_face_vacuum_A=6.636000000000001 method=PBE-D3(BJ) encut_eV=420.0 converged=T vasp_version=6.3.2 elapsed_seconds=31.830047607421875 scf_iterations=18 fingerprint=0904f527270dc1ee56047723cbe12864be166acd01db36c80c0278c3b5cee66d calculation_group=production_ar4 session_id=ar4_20260922-172423_1589050 session_step=18 energy_kind=VASP_extrapolated_zero_smearing isolated_atom_energy_eV=-0.02436924 interaction_energy_eV=0.008946480000000007 interaction_energy_per_atom_eV=0.0022366200000000017 energy=-0.08853048 free_energy=-0.08853048 pbc="T T T"
Ar      10.43000000      10.11000000       9.96400000       0.16791273       0.13246507      -0.00296161
Ar      10.43000000       8.19000000       6.63600000       0.16791266      -0.13246502       0.00295984
Ar       7.87000000      10.11000000       6.63600000      -0.16791266       0.13246502       0.00296406
Ar       7.87000000       8.19000000       9.96400000      -0.16791273      -0.13246506      -0.00296229
5
Lattice="19.7 0.0 0.0 0.0 20.2 0.0 0.0 0.0 20.3" Properties=species:S:1:pos:R:3:forces:R:3 config_id=ar5_distorted_07 role=distorted subset=random-distorted subset_index=27 atom_count=5 geometry_seed=379380 random_radius_A=5.0 minimum_pair_distance_A=2.5 min_distance_A=3.0398941889769837 max_distance_A=8.634499434977272 minimum_face_vacuum_A=6.0113775979174555 method=PBE-D3(BJ) encut_eV=420.0 converged=T vasp_version=6.3.2 elapsed_seconds=102.86768651008606 scf_iterations=36 fingerprint=96ac1667ddaef27f044eac2e86068d1836e01a0c83f629345045e816a00deed8 calculation_group=distorted_ar5 session_id=ar5_20260922-194301_1867103 session_step=7 energy_kind=VASP_extrapolated_zero_smearing isolated_atom_energy_eV=-0.02433363 interaction_energy_eV=0.06150684999999999 interaction_energy_per_atom_eV=0.012301369999999997 energy=-0.0601613 free_energy=-0.0601613 pbc="T T T"
Ar       8.68742863      10.23350039      14.28862240      -0.00071732      -0.00023688      -0.00649516
Ar      12.52987761      13.25087892      10.81830970      -0.00159699      -0.00244563       0.00127855
Ar      12.06896234       6.94912108       8.04258395       0.20166263      -0.21629404       0.26757048
Ar      10.52916669       8.60567980       6.01137760      -0.20666964       0.22081960      -0.26367490
Ar       7.17012239      10.06754504       9.49436061       0.00732132      -0.00184305       0.00132103
6
Lattice="20.9 0.0 0.0 0.0 19.7 0.0 0.0 0.0 21.0" Properties=species:S:1:pos:R:3:forces:R:3 config_id=ar6_shape3_r3.8 family=3 min_distance_A=3.8 dataset_index=44 role=training geometry_seed=none-deterministic minimum_face_vacuum_A=6.559103465619131 method=PBE-D3(BJ) encut_eV=420.0 converged=T vasp_version=6.3.2 elapsed_seconds=80.56155252456665 scf_iterations=25 fingerprint=90695e5bc7ca0db4a3274841c9e025928bea13d48f4de6b69bbe715141de5fc1 calculation_group=production_ar6 session_id=ar6_20260922-180308_1589050 session_step=11 energy_kind=VASP_extrapolated_zero_smearing isolated_atom_energy_eV=-0.02438137 interaction_energy_eV=-0.09841194 interaction_energy_per_atom_eV=-0.01640199 energy=-0.24470016 free_energy=-0.24470016 pbc="T T T"
Ar      14.25000000       9.85000000      10.50000000       0.00224857       0.00000001      -0.00000132
Ar      12.35000000      13.14089653      10.50000000       0.00044579       0.00060603      -0.00000112
Ar       8.55000000      13.14089653      10.50000000      -0.00044579       0.00060605      -0.00000251
Ar       6.65000000       9.85000000      10.50000000      -0.00224857      -0.00000001       0.00000132
Ar       8.55000000       6.55910347      10.50000000      -0.00044579      -0.00060603       0.00000112
Ar      12.35000000       6.55910347      10.50000000       0.00044579      -0.00060605       0.00000251
4
Lattice="18.3 0.0 0.0 0.0 18.3 0.0 0.0 0.0 16.6" Properties=species:S:1:pos:R:3:forces:R:3 config_id=ar4_shape1_r4.4 family=1 min_distance_A=4.4 dataset_index=7 role=training geometry_seed=none-deterministic minimum_face_vacuum_A=6.744365081389596 method=PBE-D3(BJ) encut_eV=420.0 converged=T vasp_version=6.3.2 elapsed_seconds=31.42254900932312 scf_iterations=18 fingerprint=bed379f7f3e88c16e8bfeb23e65569506c12e78ed24b1f301e3c91f54504ea09 calculation_group=production_ar4 session_id=ar4_20260922-172423_1589050 session_step=4 energy_kind=VASP_extrapolated_zero_smearing isolated_atom_energy_eV=-0.02436924 interaction_energy_eV=-0.058134099999999994 interaction_energy_per_atom_eV=-0.014533524999999999 energy=-0.15561106 free_energy=-0.15561106 pbc="T T T"
Ar      10.70563492      10.70563492       9.85563492      -0.01443992      -0.01443992      -0.01493819
Ar      10.70563492       7.59436508       6.74436508      -0.01443991       0.01443991       0.01493936
Ar       7.59436508      10.70563492       6.74436508       0.01443991      -0.01443991       0.01493937
Ar       7.59436508       7.59436508       9.85563492       0.01443992       0.01443993      -0.01494054
3
Lattice="19.8 0.0 0.0 0.0 19.4 0.0 0.0 0.0 18.2" Properties=species:S:1:pos:R:3:forces:R:3 config_id=ar3_distorted_07 role=distorted subset=random-distorted subset_index=7 atom_count=3 geometry_seed=377380 random_radius_A=5.0 minimum_pair_distance_A=2.5 min_distance_A=3.1627798491395716 max_distance_A=6.653808380283134 minimum_face_vacuum_A=6.621372651084005 method=PBE-D3(BJ) encut_eV=420.0 converged=T vasp_version=6.3.2 elapsed_seconds=64.32469940185547 scf_iterations=29 fingerprint=3223e3b72ea3187931e655a77908af2bad6c03ccaa65c52a5d7b279ac6b0c580 calculation_group=distorted_ar3 session_id=ar3_20260922-191806_1867103 session_step=7 energy_kind=VASP_extrapolated_zero_smearing isolated_atom_energy_eV=-0.02437898 interaction_energy_eV=0.02048172000000001 interaction_energy_per_atom_eV=0.006827240000000003 energy=-0.05265522 free_energy=-0.05265522 pbc="T T T"
Ar       7.79670221      10.40434853      11.57862735      -0.07121218      -0.00093391       0.23775071
Ar       8.71485378      10.41104734       8.55205681       0.08108341      -0.00357010      -0.24202007
Ar      12.00329779       8.98895266       6.62137265      -0.00987123       0.00450401       0.00426936
6
Lattice="20.0 0.0 0.0 0.0 19.7 0.0 0.0 0.0 19.4" Properties=species:S:1:pos:R:3:forces:R:3 config_id=ar6_distorted_07 role=distorted subset=random-distorted subset_index=37 atom_count=6 geometry_seed=380380 random_radius_A=5.0 minimum_pair_distance_A=2.5 min_distance_A=3.163039877534974 max_distance_A=9.290642377411828 minimum_face_vacuum_A=6.042168153052598 method=PBE-D3(BJ) encut_eV=420.0 converged=T vasp_version=6.3.2 elapsed_seconds=84.78565573692322 scf_iterations=32 fingerprint=c107b9e825721562f4e6bc238999813aaf386150b40187f3421b1d70ed88f12c calculation_group=distorted_ar6 session_id=ar6_20260922-200309_2562936 session_step=5 energy_kind=VASP_extrapolated_zero_smearing isolated_atom_energy_eV=-0.02436677 interaction_energy_eV=0.0009269900000000164 interaction_energy_per_atom_eV=0.00015449833333333607 energy=-0.14527363 free_energy=-0.14527363 pbc="T T T"
Ar      13.95783185      12.90197736       7.57575396      -0.00272294      -0.00406279      -0.00121833
Ar       6.04216815       8.42271354       9.47167054       0.00744244      -0.00091583      -0.00157517
Ar      12.86575098       7.03870116       7.17004189       0.14555905       0.02562838      -0.19893775
Ar      11.40983028      11.06639667      13.35173707      -0.00115161      -0.00174991      -0.00228894
Ar      10.95041444       6.79802264       9.67571167      -0.15536907      -0.01111392       0.19324360
Ar       9.97935747       9.59315142       6.04826293       0.00624212      -0.00778592       0.01077658
7
Lattice="20.9 0.0 0.0 0.0 20.1 0.0 0.0 0.0 23.1" Properties=species:S:1:pos:R:3:forces:R:3 config_id=ar7_shape2_r4.4 family=2 min_distance_A=4.4 dataset_index=40 role=training geometry_seed=none-deterministic minimum_face_vacuum_A=6.938730162779191 method=PBE-D3(BJ) encut_eV=420.0 converged=T vasp_version=6.3.2 elapsed_seconds=148.79122471809387 scf_iterations=30 fingerprint=3f142eec520732c8ba799bedf56edee5beeb4d838300a2f817d1d9f4ddca4d0f calculation_group=production_ar7 session_id=ar7_20260922-183543_1694346 session_step=5 energy_kind=VASP_extrapolated_zero_smearing isolated_atom_energy_eV=-0.02435806 interaction_energy_eV=-0.14688373999999998 interaction_energy_per_atom_eV=-0.020983391428571425 energy=-0.31739016 free_energy=-0.31739016 pbc="T T T"
Ar      13.56126984      10.05000000      11.55000000      -0.02823626       0.00696337       0.00695223
Ar      10.45000000      13.16126984      11.55000000       0.00698243      -0.02971897       0.00694784
Ar      10.45000000      10.05000000      14.66126984       0.00698388       0.00695879      -0.03007939
Ar       7.33873016      10.05000000      11.55000000       0.02911859      -0.00004080      -0.00004844
Ar      10.45000000       6.93873016      11.55000000      -0.00001155       0.03055857      -0.00005499
Ar      10.45000000      10.05000000       8.43873016      -0.00001543      -0.00004243       0.03089404
Ar      13.56126984      13.16126984      14.66126984      -0.01482165      -0.01467854      -0.01461128
4
Lattice="18.7 0.0 0.0 0.0 19.7 0.0 0.0 0.0 19.3" Properties=species:S:1:pos:R:3:forces:R:3 config_id=ar4_distorted_04 role=distorted subset=random-distorted subset_index=14 atom_count=4 geometry_seed=378377 random_radius_A=5.0 minimum_pair_distance_A=2.5 min_distance_A=3.5675056175151485 max_distance_A=8.940477009390563 minimum_face_vacuum_A=6.022969515677088 method=PBE-D3(BJ) encut_eV=420.0 converged=T vasp_version=6.3.2 elapsed_seconds=77.8233528137207 scf_iterations=30 fingerprint=35914bb597d6556b912af19c5ef26189705b2997e597cfffac619d7241bf8dad calculation_group=distorted_ar4 session_id=ar4_20260922-193004_1867103 session_step=4 energy_kind=VASP_extrapolated_zero_smearing isolated_atom_energy_eV=-0.02437995 interaction_energy_eV=-0.030032799999999985 interaction_energy_per_atom_eV=-0.007508199999999996 energy=-0.1275526 free_energy=-0.1275526 pbc="T T T"
Ar       8.77505195      11.26585865       8.58434677      -0.03715770       0.00217893       0.00656585
Ar      10.95105860       6.02296952      11.14931671      -0.00018428       0.00147346      -0.00012869
Ar      12.31532169      11.19154523       8.15068329       0.03505078      -0.00169458      -0.00511251
Ar       6.38467831      13.67703048      10.44529191       0.00229121      -0.00195781      -0.00132465
7
Lattice="20.9 0.0 0.0 0.0 20.1 0.0 0.0 0.0 23.1" Properties=species:S:1:pos:R:3:forces:R:3 config_id=ar7_shape1_r4.4 family=1 min_distance_A=4.4 dataset_index=20 role=training geometry_seed=none-deterministic minimum_face_vacuum_A=6.490325224750231 method=PBE-D3(BJ) encut_eV=420.0 converged=T vasp_version=6.3.2 elapsed_seconds=115.96288442611694 scf_iterations=24 fingerprint=7e5a098526224fce38f04f4252175e2d428596e3277b77ab17a97edda33d5144 calculation_group=production_ar7 session_id=ar7_20260922-183543_1694346 session_step=4 energy_kind=VASP_extrapolated_zero_smearing isolated_atom_energy_eV=-0.02435806 interaction_energy_eV=-0.08229467000000001 interaction_energy_per_atom_eV=-0.01175638142857143 energy=-0.25280109 free_energy=-0.25280109 pbc="T T T"
Ar      13.83545189      10.05000000      11.55000000      -0.02100762      -0.00000002       0.00000110
Ar      11.24919678      13.60967478      11.55000000      -0.00531715      -0.01956831      -0.00000213
Ar       7.06454811      12.25000000      11.55000000       0.01712861      -0.01252979      -0.00000248
Ar       7.06454811       7.85000000      11.55000000       0.01712858       0.01252979       0.00000082
Ar      11.24919678       6.49032522      11.55000000      -0.00531728       0.01956834       0.00000004
Ar      10.09258833      10.05000000      15.29286356      -0.00130757      -0.00000001      -0.01437523
Ar      10.09258833      10.05000000       7.80713644      -0.00130757      -0.00000001       0.01437787
3
Lattice="19.8 0.0 0.0 0.0 19.4 0.0 0.0 0.0 18.2" Properties=species:S:1:pos:R:3:forces:R:3 config_id=ar3_distorted_04 role=distorted subset=random-distorted subset_index=4 atom_count=3 geometry_seed=377377 random_radius_A=5.0 minimum_pair_distance_A=2.5 min_distance_A=4.310031748491406 max_distance_A=7.8802196359164345 minimum_face_vacuum_A=6.007743599330312 method=PBE-D3(BJ) encut_eV=420.0 converged=T vasp_version=6.3.2 elapsed_seconds=87.81871008872986 scf_iterations=40 fingerprint=83ec2a74279b10790b967dee6e107452fab5836d660d2939f2933935e72541fa calculation_group=distorted_ar3 session_id=ar3_20260922-191806_1867103 session_step=4 energy_kind=VASP_extrapolated_zero_smearing isolated_atom_energy_eV=-0.02437898 interaction_energy_eV=-0.012193249999999989 interaction_energy_per_atom_eV=-0.004064416666666663 energy=-0.08533019 free_energy=-0.08533019 pbc="T T T"
Ar       7.78649886       8.05296014      12.19225640       0.00075665      -0.00057480      -0.00092581
Ar      12.01350114       7.69938772       7.27524499      -0.00356564       0.01126192      -0.00323799
Ar      11.03369715      11.70061228       6.00774360       0.00280900      -0.01068711       0.00416380
5
Lattice="18.9 0.0 0.0 0.0 20.3 0.0 0.0 0.0 21.9" Properties=species:S:1:pos:R:3:forces:R:3 config_id=ar5_shape4_r3.8 family=4 min_distance_A=3.8 dataset_index=73 role=training geometry_seed=none-deterministic minimum_face_vacuum_A=6.68380536465263 method=PBE-D3(BJ) encut_eV=420.0 converged=T vasp_version=6.3.2 elapsed_seconds=78.7232506275177 scf_iterations=26 fingerprint=017e48241f3a7db44daada0bbc2bb3de6b8e856b4e928c9476999a6a621f27ce calculation_group=production_ar5 session_id=ar5_20260922-173715_1589050 session_step=14 energy_kind=VASP_extrapolated_zero_smearing isolated_atom_energy_eV=-0.02437161 interaction_energy_eV=-0.06067157000000001 interaction_energy_per_atom_eV=-0.012134314000000002 energy=-0.18252962 free_energy=-0.18252962 pbc="T T T"
Ar      11.50681033      10.15000000      10.95000000      -0.02404980       0.00000003       0.00000119
Ar       7.39318967      12.05000000      10.95000000       0.01278371      -0.00557875       0.00000210
Ar       7.39318967       8.25000000      10.95000000       0.01278269       0.00557826      -0.00000215
Ar       8.76439656      10.15000000      15.21619464      -0.00075806      -0.00000000      -0.01661238
Ar       8.76439656      10.15000000       6.68380536      -0.00075855       0.00000046       0.01661123
6
Lattice="20.9 0.0 0.0 0.0 19.7 0.0 0.0 0.0 21.0" Properties=species:S:1:pos:R:3:forces:R:3 config_id=ar6_shape2_r3.8 family=2 min_distance_A=3.8 dataset_index=24 role=training geometry_seed=none-deterministic minimum_face_vacuum_A=7.793189666011957 method=PBE-D3(BJ) encut_eV=420.0 converged=T vasp_version=6.3.2 elapsed_seconds=82.65797209739685 scf_iterations=26 fingerprint=3a58428acc848b46fd8335f1c5a01f011ddeb1318bdd83109fdb67ceafcb928a calculation_group=production_ar6 session_id=ar6_20260922-180308_1589050 session_step=6 energy_kind=VASP_extrapolated_zero_smearing isolated_atom_energy_eV=-0.02438137 interaction_energy_eV=-0.1340339 interaction_energy_per_atom_eV=-0.022338983333333336 energy=-0.28032212 free_energy=-0.28032212 pbc="T T T"
Ar      12.23125000       9.85000000       8.60000000      -0.01770490      -0.00000004       0.00063676
Ar       8.66875000      11.90681033       8.60000000       0.00885241      -0.01612965       0.00010282
Ar       8.66875000       7.79318967       8.60000000       0.00885248       0.01612971       0.00009918
Ar      12.23125000       9.85000000      12.40000000      -0.01770489      -0.00000002      -0.00063915
Ar       8.66875000      11.90681033      12.40000000       0.00885245      -0.01612968      -0.00009788
Ar       8.66875000       7.79318967      12.40000000       0.00885245       0.01612968      -0.00010173
4
Lattice="18.3 0.0 0.0 0.0 18.3 0.0 0.0 0.0 16.6" Properties=species:S:1:pos:R:3:forces:R:3 config_id=ar4_shape3_r3.8 family=3 min_distance_A=3.8 dataset_index=42 role=training geometry_seed=none-deterministic minimum_face_vacuum_A=6.580241541197818 method=PBE-D3(BJ) encut_eV=420.0 converged=T vasp_version=6.3.2 elapsed_seconds=38.115641355514526 scf_iterations=22 fingerprint=fcfefe7a48addb17ababd1ea8c60e7db249299032fd632b24405e04d6b913e42 calculation_group=production_ar4 session_id=ar4_20260922-172423_1589050 session_step=11 energy_kind=VASP_extrapolated_zero_smearing isolated_atom_energy_eV=-0.02436924 interaction_energy_eV=-0.05612756999999999 interaction_energy_per_atom_eV=-0.014031892499999997 energy=-0.15360453 free_energy=-0.15360453 pbc="T T T"
Ar      11.37547611       9.15000000       7.11307941      -0.00493750       0.00000000      -0.00169213
Ar       6.92452389      11.71975846       7.11307941       0.00244274      -0.00334579      -0.00177702
Ar       6.92452389       6.58024154       7.11307941       0.00244274       0.00334578      -0.00178028
Ar       8.40817463       9.15000000       9.48692059       0.00005203       0.00000000       0.00524944
7
Lattice="20.9 0.0 0.0 0.0 20.1 0.0 0.0 0.0 23.1" Properties=species:S:1:pos:R:3:forces:R:3 config_id=ar7_shape5_r3.8 family=5 min_distance_A=3.8 dataset_index=95 role=training geometry_seed=none-deterministic minimum_face_vacuum_A=6.575556711016866 method=PBE-D3(BJ) encut_eV=420.0 converged=T vasp_version=6.3.2 elapsed_seconds=142.0760726928711 scf_iterations=29 fingerprint=a1fb4721175c3a95686cb0baa8b2b7054cf3c6e3a1343ab3ee216d8dbe0c360a calculation_group=production_ar7 session_id=ar7_20260922-183543_1694346 session_step=19 energy_kind=VASP_extrapolated_zero_smearing isolated_atom_energy_eV=-0.02435806 interaction_energy_eV=-0.17307624 interaction_energy_per_atom_eV=-0.02472517714285714 energy=-0.34358266 free_energy=-0.34358266 pbc="T T T"
Ar      13.34536941      10.05000000      11.55000000      -0.00255048       0.00754659       0.00548755
Ar      10.45000000      13.52444329      11.55000000      -0.00357399      -0.02818243      -0.00294814
Ar      10.45000000      10.05000000      14.01106400       0.00490393       0.00579791      -0.00898457
Ar       7.55463059      10.05000000      11.55000000       0.00385256       0.00008366      -0.00000013
Ar      10.45000000       6.57555671      11.55000000      -0.00003743       0.02982428      -0.00005409
Ar      10.45000000      10.05000000       9.08893600       0.00011107       0.00018743       0.01010210
Ar      13.34536941      13.52444329      14.01106400      -0.00270567      -0.01525743      -0.00360272
6
Lattice="20.9 0.0 0.0 0.0 19.7 0.0 0.0 0.0 21.0" Properties=species:S:1:pos:R:3:forces:R:3 config_id=ar6_shape5_r3.2 family=5 min_distance_A=3.2 dataset_index=99 role=training geometry_seed=none-deterministic minimum_face_vacuum_A=7.078718707889797 method=PBE-D3(BJ) encut_eV=420.0 converged=T vasp_version=6.3.2 elapsed_seconds=76.59582042694092 scf_iterations=24 fingerprint=e73fe86fbd9b56a6164c6971a1c64569d353dbf890d73347380e19ab586fbbb3 calculation_group=production_ar6 session_id=ar6_20260922-180308_1589050 session_step=18 energy_kind=VASP_extrapolated_zero_smearing isolated_atom_energy_eV=-0.02438137 interaction_energy_eV=0.04803111 interaction_energy_per_atom_eV=0.008005185 energy=-0.09825711 free_energy=-0.09825711 pbc="T T T"
Ar      12.45000000       9.85000000       8.90000000      -0.01281931       0.00000002      -0.21138842
Ar       8.45000000      12.62128129       8.90000000       0.00640967      -0.00785008      -0.21246574
Ar       8.45000000       7.07871871       8.90000000       0.00640963       0.00785006      -0.21246820
Ar      12.45000000       9.85000000      12.10000000      -0.01281930       0.00000002       0.21138535
Ar       8.45000000      12.62128129      12.10000000       0.00640968      -0.00785008       0.21246972
Ar       8.45000000       7.07871871      12.10000000       0.00640963       0.00785005       0.21246728
4
Lattice="18.3 0.0 0.0 0.0 18.3 0.0 0.0 0.0 16.6" Properties=species:S:1:pos:R:3:forces:R:3 config_id=ar4_shape4_r4.4 family=4 min_distance_A=4.4 dataset_index=67 role=training geometry_seed=none-deterministic minimum_face_vacuum_A=7.10102562869009 method=PBE-D3(BJ) encut_eV=420.0 converged=T vasp_version=6.3.2 elapsed_seconds=50.352715492248535 scf_iterations=29 fingerprint=e7bbc63950c88b4dc4bd7b9e50e96430ec80bd5455563c5e1b6ab6a7bbe21a4b calculation_group=production_ar4 session_id=ar4_20260922-172423_1589050 session_step=13 energy_kind=VASP_extrapolated_zero_smearing isolated_atom_energy_eV=-0.02436924 interaction_energy_eV=-0.04645094999999999 interaction_energy_per_atom_eV=-0.011612737499999998 energy=-0.14392791 free_energy=-0.14392791 pbc="T T T"
Ar      10.99457596      10.99457596       9.49897437      -0.01175608      -0.01175129      -0.01251874
Ar      10.99457596       7.30542404       7.10102563      -0.01174703       0.01176276       0.01251419
Ar       7.30542404      10.99457596       7.10102563       0.01175411      -0.01175609       0.01252770
Ar       7.30542404       7.30542404       9.49897437       0.01174899       0.01174461      -0.01252315
6
Lattice="20.9 0.0 0.0 0.0 19.7 0.0 0.0 0.0 21.0" Properties=species:S:1:pos:R:3:forces:R:3 config_id=ar6_shape3_r3.2 family=3 min_distance_A=3.2 dataset_index=59 role=training geometry_seed=none-deterministic minimum_face_vacuum_A=7.078718707889795 method=PBE-D3(BJ) encut_eV=420.0 converged=T vasp_version=6.3.2 elapsed_seconds=64.80589437484741 scf_iterations=20 fingerprint=2dd19708ce98a2c90fad02b762eaebf7ea9a3771b46ac74a9919c866a13d24d2 calculation_group=production_ar6 session_id=ar6_20260922-180308_1589050 session_step=10 energy_kind=VASP_extrapolated_zero_smearing isolated_atom_energy_eV=-0.02438137 interaction_energy_eV=0.14956691 interaction_energy_per_atom_eV=0.024927818333333334 energy=0.00327869 free_energy=0.00327869 pbc="T T T"
Ar      13.65000000       9.85000000      10.50000000       0.21240567      -0.00000006      -0.00000177
Ar      12.05000000      12.62128129      10.50000000       0.10543958       0.18283733       0.00000215
Ar       8.85000000      12.62128129      10.50000000      -0.10543959       0.18283720       0.00000022
Ar       7.25000000       9.85000000      10.50000000      -0.21240569       0.00000005       0.00000177
Ar       8.85000000       7.07871871      10.50000000      -0.10543957      -0.18283727      -0.00000215
Ar      12.05000000       7.07871871      10.50000000       0.10543959      -0.18283726      -0.00000022
4
Lattice="18.7 0.0 0.0 0.0 19.7 0.0 0.0 0.0 19.3" Properties=species:S:1:pos:R:3:forces:R:3 config_id=ar4_distorted_03 role=distorted subset=random-distorted subset_index=13 atom_count=4 geometry_seed=378376 random_radius_A=5.0 minimum_pair_distance_A=2.5 min_distance_A=3.3461685571943454 max_distance_A=7.735655428991563 minimum_face_vacuum_A=6.289892310914382 method=PBE-D3(BJ) encut_eV=420.0 converged=T vasp_version=6.3.2 elapsed_seconds=79.59823536872864 scf_iterations=31 fingerprint=c6ec2001c37347f5448d000ad64f1881662e0f0bbfa76e397fef6399511dd18e calculation_group=distorted_ar4 session_id=ar4_20260922-193004_1867103 session_step=3 energy_kind=VASP_extrapolated_zero_smearing isolated_atom_energy_eV=-0.02437995 interaction_energy_eV=-0.012075429999999998 interaction_energy_per_atom_eV=-0.0030188574999999995 energy=-0.10959523 free_energy=-0.10959523 pbc="T T T"
Ar       9.15606513       6.28989231      10.43624909       0.00094913       0.01306738      -0.00399949
Ar       7.69405814      10.21758732      12.54419529      -0.02787521      -0.11641062       0.00813586
Ar      11.00594186       8.42678797       6.75580471      -0.00485560      -0.00495190       0.00842075
Ar       8.62478515      13.41010769      12.17216716       0.03178168       0.10829514      -0.01255713
6
Lattice="20.9 0.0 0.0 0.0 19.7 0.0 0.0 0.0 21.0" Properties=species:S:1:pos:R:3:forces:R:3 config_id=ar6_shape2_r4.4 family=2 min_distance_A=4.4 dataset_index=29 role=training geometry_seed=none-deterministic minimum_face_vacuum_A=7.468430139592792 method=PBE-D3(BJ) encut_eV=420.0 converged=T vasp_version=6.3.2 elapsed_seconds=107.54185342788696 scf_iterations=33 fingerprint=17099b494713978cb68a668d20e3287db4ae470d263a00d4a355bf669571d61f calculation_group=production_ar6 session_id=ar6_20260922-180308_1589050 session_step=5 energy_kind=VASP_extrapolated_zero_smearing isolated_atom_energy_eV=-0.02438137 interaction_energy_eV=-0.07182332 interaction_energy_per_atom_eV=-0.011970553333333333 energy=-0.21811154 free_energy=-0.21811154 pbc="T T T"
Ar      12.51250000       9.85000000       8.30000000      -0.01437284       0.00000021       0.01387147
Ar       8.38750000      12.23156986       8.30000000       0.00718837      -0.01391480       0.01372117
Ar       8.38750000       7.46843014       8.30000000       0.00718432       0.01391415       0.01373013
Ar      12.51250000       9.85000000      12.70000000      -0.01437521      -0.00000030      -0.01387387
Ar       8.38750000      12.23156986      12.70000000       0.00718557      -0.01391337      -0.01372862
Ar       8.38750000       7.46843014      12.70000000       0.00718979       0.01391411      -0.01372028
4
Lattice="18.3 0.0 0.0 0.0 18.3 0.0 0.0 0.0 16.6" Properties=species:S:1:pos:R:3:forces:R:3 config_id=ar4_shape2_r4.4 family=2 min_distance_A=4.4 dataset_index=27 role=training geometry_seed=none-deterministic minimum_face_vacuum_A=6.03873016277919 method=PBE-D3(BJ) encut_eV=420.0 converged=T vasp_version=6.3.2 elapsed_seconds=50.558149576187134 scf_iterations=29 fingerprint=32f3395f6f7bd419f1c33d6be016350499db7ff300141825b0d3fca6b02b9e47 calculation_group=production_ar4 session_id=ar4_20260922-172423_1589050 session_step=5 energy_kind=VASP_extrapolated_zero_smearing isolated_atom_energy_eV=-0.02436924 interaction_energy_eV=-0.04251211999999999 interaction_energy_per_atom_eV=-0.010628029999999997 energy=-0.13998908 free_energy=-0.13998908 pbc="T T T"
Ar      12.26126984       9.15000000       8.30000000      -0.01704226      -0.00000323      -0.00000159
Ar       9.15000000      12.26126984       8.30000000      -0.00000006      -0.01702521      -0.00000252
Ar       6.03873016       9.15000000       8.30000000       0.01704235       0.00000312       0.00000252
Ar       9.15000000       6.03873016       8.30000000      -0.00000003       0.01702532       0.00000158
3
Lattice="19.8 0.0 0.0 0.0 19.4 0.0 0.0 0.0 18.2" Properties=species:S:1:pos:R:3:forces:R:3 config_id=ar3_distorted_05 role=distorted subset=random-distorted subset_index=5 atom_count=3 geometry_seed=377378 random_radius_A=5.0 minimum_pair_distance_A=2.5 min_distance_A=5.53357252994825 max_distance_A=6.721152462884525 minimum_face_vacuum_A=6.186665197465034 method=PBE-D3(BJ) encut_eV=420.0 converged=T vasp_version=6.3.2 elapsed_seconds=67.37984728813171 scf_iterations=31 fingerprint=a6add6d1bee1da32d85d27551da38326b5db42cd56735b204bdb0a92874ed293 calculation_group=distorted_ar3 session_id=ar3_20260922-191806_1867103 session_step=5 energy_kind=VASP_extrapolated_zero_smearing isolated_atom_energy_eV=-0.02437898 interaction_energy_eV=-0.004515109999999989 interaction_energy_per_atom_eV=-0.001505036666666663 energy=-0.07765205 free_energy=-0.07765205 pbc="T T T"
Ar       7.45852159       9.01002575       9.23515588       0.00423187       0.00059811      -0.00137903
Ar      12.34147841       8.08396450      12.01333480      -0.00225342       0.00130425      -0.00030337
Ar      11.45970248      11.31603550       6.18666520      -0.00197845      -0.00190236       0.00168240
3
Lattice="20.1 0.0 0.0 0.0 17.5 0.0 0.0 0.0 12.0" Properties=species:S:1:pos:R:3:forces:R:3 config_id=ar3_shape2_r3.8 family=2 min_distance_A=3.8 dataset_index=31 role=training geometry_seed=none-deterministic minimum_face_vacuum_A=6.0 method=PBE-D3(BJ) encut_eV=420.0 converged=T vasp_version=6.3.2 elapsed_seconds=26.110377311706543 scf_iterations=22 fingerprint=fe1a9e61ce9afa0e8521c5643a4a50146bc1d13264e88e6766e74427a44f8c36 calculation_group=production_ar3 session_id=ar3_20260922-171328_1579226 session_step=6 energy_kind=VASP_extrapolated_zero_smearing isolated_atom_energy_eV=-0.02439065 interaction_energy_eV=-0.03195948 interaction_energy_per_atom_eV=-0.01065316 energy=-0.10513143 free_energy=-0.10513143 pbc="T T T"
Ar       6.58469828       7.97030711       6.00000000      -0.00248734      -0.00072604      -0.00000125
Ar      10.05000000       9.52969289       6.00000000       0.00000148       0.00145226      -0.00000167
Ar      13.51530172       7.97030711       6.00000000       0.00248586      -0.00072621       0.00000292
3
Lattice="20.1 0.0 0.0 0.0 17.5 0.0 0.0 0.0 12.0" Properties=species:S:1:pos:R:3:forces:R:3 config_id=ar3_shape1_r3.2 family=1 min_distance_A=3.2 dataset_index=6 role=training geometry_seed=none-deterministic minimum_face_vacuum_A=6.0 method=PBE-D3(BJ) encut_eV=420.0 converged=T vasp_version=6.3.2 elapsed_seconds=22.989813566207886 scf_iterations=20 fingerprint=e039d27bf40deb84a6491e20374f1d243f9983f055b22b9773c863bcb56ade8e calculation_group=production_ar3 session_id=ar3_20260922-171328_1579226 session_step=2 energy_kind=VASP_extrapolated_zero_smearing isolated_atom_energy_eV=-0.02439065 interaction_energy_eV=0.087257 interaction_energy_per_atom_eV=0.029085666666666666 energy=0.01408505 free_energy=0.01408505 pbc="T T T"
Ar      11.43564065       8.75000000       6.00000000       0.36798928      -0.00000001       0.00000132
Ar       8.66435935      10.35000000       6.00000000      -0.18399439       0.31874316      -0.00000160
Ar       8.66435935       7.15000000       6.00000000      -0.18399489      -0.31874315       0.00000028
4
Lattice="18.3 0.0 0.0 0.0 18.3 0.0 0.0 0.0 16.6" Properties=species:S:1:pos:R:3:forces:R:3 config_id=ar4_shape5_r3.8 family=5 min_distance_A=3.8 dataset_index=82 role=training geometry_seed=none-deterministic minimum_face_vacuum_A=6.324000000000001 method=PBE-D3(BJ) encut_eV=420.0 converged=T vasp_version=6.3.2 elapsed_seconds=35.03808927536011 scf_iterations=20 fingerprint=6ace8fb4c1a67ead4185d0a54bc6dbe3198dbb2c65f5c6fec491c424aff785f9 calculation_group=production_ar4 session_id=ar4_20260922-172423_1589050 session_step=19 energy_kind=VASP_extrapolated_zero_smearing isolated_atom_energy_eV=-0.02436924 interaction_energy_eV=-0.055214369999999985 interaction_energy_per_atom_eV=-0.013803592499999996 energy=-0.15269133 free_energy=-0.15269133 pbc="T T T"
Ar      10.67000000      10.29000000      10.27600000      -0.00143440      -0.00372564      -0.01202231
Ar      10.67000000       8.01000000       6.32400000      -0.00143476       0.00372566       0.01202127
Ar       7.63000000      10.29000000       6.32400000       0.00143476      -0.00372566       0.01201998
Ar       7.63000000       8.01000000      10.27600000       0.00143440       0.00372564      -0.01201894
5
Lattice="18.9 0.0 0.0 0.0 20.3 0.0 0.0 0.0 21.9" Properties=species:S:1:pos:R:3:forces:R:3 config_id=ar5_shape3_r3.8 family=3 min_distance_A=3.8 dataset_index=53 role=training geometry_seed=none-deterministic minimum_face_vacuum_A=6.526200639683509 method=PBE-D3(BJ) encut_eV=420.0 converged=T vasp_version=6.3.2 elapsed_seconds=62.93705344200134 scf_iterations=21 fingerprint=8a53916b6bfc8c0baadf1d600d64d7790900f2fa3fdf7d5ee9af8eb6dc7d9c02 calculation_group=production_ar5 session_id=ar5_20260922-173715_1589050 session_step=11 energy_kind=VASP_extrapolated_zero_smearing isolated_atom_energy_eV=-0.02437161 interaction_energy_eV=-0.08296048 interaction_energy_per_atom_eV=-0.016592096 energy=-0.20481853 free_energy=-0.20481853 pbc="T T T"
Ar      12.37379936      10.15000000      10.95000000       0.00138224       0.00000000      -0.00000071
Ar      10.14021540      13.22426458      10.95000000      -0.00007444       0.00102151       0.00000202
Ar       6.52620064      12.05000000      10.95000000      -0.00061668      -0.00015200       0.00000165
Ar       6.52620064       8.25000000      10.95000000      -0.00061668       0.00015200      -0.00000251
Ar      10.14021540       7.07573542      10.95000000      -0.00007444      -0.00102151      -0.00000045
3
Lattice="19.8 0.0 0.0 0.0 19.4 0.0 0.0 0.0 18.2" Properties=species:S:1:pos:R:3:forces:R:3 config_id=ar3_distorted_08 role=distorted subset=random-distorted subset_index=8 atom_count=3 geometry_seed=377381 random_radius_A=5.0 minimum_pair_distance_A=2.5 min_distance_A=3.2439965805335134 max_distance_A=7.287004798262791 minimum_face_vacuum_A=7.150221924121357 method=PBE-D3(BJ) encut_eV=420.0 converged=T vasp_version=6.3.2 elapsed_seconds=72.62932538986206 scf_iterations=33 fingerprint=e2a4589eac04a0eb3135ccef9852bf9f1483d40b61825fea13ebfeade3571fc1 calculation_group=distorted_ar3 session_id=ar3_20260922-191806_1867103 session_step=8 energy_kind=VASP_extrapolated_zero_smearing isolated_atom_energy_eV=-0.02437898 interaction_energy_eV=0.01651094000000001 interaction_energy_per_atom_eV=0.00550364666666667 energy=-0.056626 free_energy=-0.056626 pbc="T T T"
Ar      12.43659454       7.15022192       9.31827860       0.15336552      -0.02024780       0.08813214
Ar       7.36340546      12.24977808      10.48349045       0.00063985      -0.00047947      -0.00024692
Ar       9.63831003       7.50722826       7.71650955      -0.15400536       0.02072727      -0.08788522
5
Lattice="18.9 0.0 0.0 0.0 20.3 0.0 0.0 0.0 21.9" Properties=species:S:1:pos:R:3:forces:R:3 config_id=ar5_shape5_r3.8 family=5 min_distance_A=3.8 dataset_index=93 role=training geometry_seed=none-deterministic minimum_face_vacuum_A=6.4826985241164845 method=PBE-D3(BJ) encut_eV=420.0 converged=T vasp_version=6.3.2 elapsed_seconds=66.06286239624023 scf_iterations=22 fingerprint=ee25185c79218388ca730c81ae90cb33f3b126293f6e6ef3b658104a8576a308 calculation_group=production_ar5 session_id=ar5_20260922-173715_1589050 session_step=19 energy_kind=VASP_extrapolated_zero_smearing isolated_atom_energy_eV=-0.02437161 interaction_energy_eV=-0.08186384 interaction_energy_per_atom_eV=-0.016372768 energy=-0.20372189 free_energy=-0.20372189 pbc="T T T"
Ar      12.41730148      10.15000000       9.76307941      -0.00920203      -0.00000000      -0.00234778
Ar       9.45000000      13.71076177       9.76307941       0.00000000      -0.02224897       0.00621439
Ar       6.48269852      10.15000000       9.76307941       0.00920202       0.00000000      -0.00234562
Ar       9.45000000       6.58923823       9.76307941       0.00000000       0.02224897       0.00621148
Ar       9.45000000      10.15000000      12.13692059       0.00000000      -0.00000000      -0.00773248
4
Lattice="18.7 0.0 0.0 0.0 19.7 0.0 0.0 0.0 19.3" Properties=species:S:1:pos:R:3:forces:R:3 config_id=ar4_distorted_02 role=distorted subset=random-distorted subset_index=12 atom_count=4 geometry_seed=378375 random_radius_A=5.0 minimum_pair_distance_A=2.5 min_distance_A=5.000922239549563 max_distance_A=7.7650576053816405 minimum_face_vacuum_A=6.043503588815181 method=PBE-D3(BJ) encut_eV=420.0 converged=T vasp_version=6.3.2 elapsed_seconds=71.47419452667236 scf_iterations=28 fingerprint=c581bd5af0684b02a463a905cec0df29edd92443d9752ee9e4fd46f9b87b8604 calculation_group=distorted_ar4 session_id=ar4_20260922-193004_1867103 session_step=2 energy_kind=VASP_extrapolated_zero_smearing isolated_atom_energy_eV=-0.02437995 interaction_energy_eV=-0.010251079999999996 interaction_energy_per_atom_eV=-0.002562769999999999 energy=-0.10777088 free_energy=-0.10777088 pbc="T T T"
Ar       7.24735966      11.17915803       6.04350359       0.00654234       0.00038644       0.00415077
Ar      11.45264034      12.44761616       8.43428833      -0.00610810      -0.00666548      -0.00336603
Ar       7.48069319       8.31307889      13.25649641       0.00097816       0.00028883      -0.00160851
Ar      11.27964777       7.25238384       8.17067284      -0.00141240       0.00599021       0.00082377
3
Lattice="20.1 0.0 0.0 0.0 17.5 0.0 0.0 0.0 12.0" Properties=species:S:1:pos:R:3:forces:R:3 config_id=ar3_shape3_r3.8 family=3 min_distance_A=3.8 dataset_index=51 role=training geometry_seed=none-deterministic minimum_face_vacuum_A=6.0 method=PBE-D3(BJ) encut_eV=420.0 converged=T vasp_version=6.3.2 elapsed_seconds=25.167713403701782 scf_iterations=22 fingerprint=2cbd89c5fc0182bee1ce495ec263571c31f31ebfb7c395e0ff0b739cd40fd151 calculation_group=production_ar3 session_id=ar3_20260922-171909_1589050 session_step=2 energy_kind=VASP_extrapolated_zero_smearing isolated_atom_energy_eV=-0.02439065 interaction_energy_eV=-0.023549780000000006 interaction_energy_per_atom_eV=-0.007849926666666668 energy=-0.09672173 free_energy=-0.09672173 pbc="T T T"
Ar       8.15000000       6.37500000       6.00000000      -0.00146181       0.00818379      -0.00000029
Ar      11.95000000       6.37500000       6.00000000       0.00103461       0.00205834       0.00000058
Ar       8.91000000      11.12500000       6.00000000       0.00042720      -0.01024214      -0.00000029
4
Lattice="18.3 0.0 0.0 0.0 18.3 0.0 0.0 0.0 16.6" Properties=species:S:1:pos:R:3:forces:R:3 config_id=ar4_shape1_r3.8 family=1 min_distance_A=3.8 dataset_index=2 role=training geometry_seed=none-deterministic minimum_face_vacuum_A=6.95649711574556 method=PBE-D3(BJ) encut_eV=420.0 converged=T vasp_version=6.3.2 elapsed_seconds=35.0823609828949 scf_iterations=20 fingerprint=f0c018ca3b5a7a45d9b7829b477fc0c51d3028c808b5378a0fff356ca887adcf calculation_group=production_ar4 session_id=ar4_20260922-172423_1589050 session_step=3 energy_kind=VASP_extrapolated_zero_smearing isolated_atom_energy_eV=-0.02436924 interaction_energy_eV=-0.08159738999999999 interaction_energy_per_atom_eV=-0.020399347499999998 energy=-0.17907435 free_energy=-0.17907435 pbc="T T T"
Ar      10.49350288      10.49350288       9.64350288       0.00872678       0.00872677       0.00875041
Ar      10.49350288       7.80649712       6.95649712       0.00872676      -0.00872677      -0.00875041
Ar       7.80649712      10.49350288       6.95649712      -0.00872678       0.00872677      -0.00875043
Ar       7.80649712       7.80649712       9.64350288      -0.00872676      -0.00872677       0.00875042
4
Lattice="18.7 0.0 0.0 0.0 19.7 0.0 0.0 0.0 19.3" Properties=species:S:1:pos:R:3:forces:R:3 config_id=ar4_distorted_01 role=distorted subset=random-distorted subset_index=11 atom_count=4 geometry_seed=378374 random_radius_A=5.0 minimum_pair_distance_A=2.5 min_distance_A=3.02271086011949 max_distance_A=7.5237030595324015 minimum_face_vacuum_A=6.196492708573738 method=PBE-D3(BJ) encut_eV=420.0 converged=T vasp_version=6.3.2 elapsed_seconds=45.28413653373718 scf_iterations=18 fingerprint=50861dde14ea07a5b083ff91eb4378e8d20fabac2dc277227b03dd706e34f31f calculation_group=distorted_ar4 session_id=ar4_20260922-193004_1867103 session_step=1 energy_kind=VASP_extrapolated_zero_smearing isolated_atom_energy_eV=-0.02437995 interaction_energy_eV=0.06917015 interaction_energy_per_atom_eV=0.0172925375 energy=-0.02834965 free_energy=-0.02834965 pbc="T T T"
Ar       7.66383111      10.63104688       6.19649271       0.00532905      -0.00754028       0.00775538
Ar       8.12848024      12.68014908      13.10350729       0.00218076      -0.00160810      -0.00225122
Ar      11.03616889       9.31702579       9.94069898       0.17335456       0.32791631       0.21245928
Ar       9.77992702       7.01985092       8.43019412      -0.18086437      -0.31876794      -0.21796344
